# Anseriformes clade from the Open Tree of Life; 532 nodes, 531 edges; canonical sorted order
0 1
1 2
1 464
3 6
4 6
5 6
6 451
7 8
8 516
9 12
10 12
11 12
12 90
13 408
14 523
15 16
16 409
17 18
18 19
18 407
20 405
21 526
22 523
23 404
24 520
25 26
25 409
27 424
28 29
29 400
30 421
31 420
32 420
33 397
34 421
35 523
36 406
37 39
38 39
39 40
39 400
41 520
42 396
43 44
44 45
44 408
46 403
47 520
48 404
49 426
50 520
51 520
52 520
53 390
54 520
55 392
56 520
57 531
58 405
59 520
60 520
61 520
62 418
63 520
64 65
64 394
66 394
67 427
68 520
69 520
70 426
71 72
71 424
73 398
74 520
75 520
76 423
77 528
78 520
79 80
79 81
79 82
79 529
83 523
84 530
85 86
86 87
86 427
88 398
89 393
90 134
90 182
90 195
90 236
90 238
90 239
90 279
90 304
90 308
90 309
90 342
90 346
90 388
90 459
91 92
92 93
93 131
93 187
93 324
94 97
95 97
96 97
97 482
98 100
99 100
100 101
100 476
102 122
103 122
104 483
105 107
106 107
107 473
108 474
109 122
110 122
111 113
112 113
113 477
114 482
115 480
116 475
117 122
118 122
119 480
120 122
121 122
122 123
122 189
122 190
122 466
122 473
122 474
124 473
125 126
125 127
125 483
128 129
128 130
130 508
131 388
132 465
132 489
132 507
133 134
135 136
135 401
137 468
138 432
139 481
140 513
141 432
142 442
143 456
144 513
145 468
146 449
147 481
148 442
149 151
150 151
151 511
152 154
153 154
154 166
155 157
156 157
157 470
158 166
159 160
160 161
160 471
162 472
163 166
164 471
165 166
166 167
166 170
166 466
166 467
168 467
169 472
171 176
172 437
173 176
174 437
175 176
176 436
176 437
177 178
178 179
179 464
180 181
181 446
182 183
184 185
184 489
186 187
187 188
191 193
192 193
193 509
194 195
196 198
197 198
198 460
199 458
200 201
201 202
201 461
203 462
204 462
205 206
206 431
207 208
208 489
209 210
210 499
211 223
212 486
213 488
214 216
215 216
216 488
217 487
218 223
219 223
220 223
221 223
222 486
223 224
223 465
223 484
225 500
226 504
227 500
228 503
229 233
230 505
231 505
232 504
233 234
233 236
233 500
233 501
235 502
236 382
237 238
239 240
241 242
242 497
243 244
244 433
245 246
246 510
247 248
248 439
249 251
249 515
250 251
251 252
253 254
254 485
255 413
256 411
257 258
258 411
258 412
258 522
259 412
260 413
261 262
261 411
263 264
264 399
265 441
266 270
267 270
268 443
269 441
270 272
270 435
270 441
270 443
271 443
273 276
274 276
275 276
276 277
276 446
278 279
280 281
281 439
282 287
283 284
284 440
285 287
286 287
287 288
287 438
287 440
289 440
290 291
291 458
292 463
293 422
294 414
295 299
296 498
297 299
298 299
299 490
299 498
300 498
301 304
302 304
303 304
305 306
306 492
307 308
309 310
311 495
312 320
313 494
314 320
315 317
316 317
317 494
318 496
319 496
320 321
320 322
320 323
320 492
320 493
324 325
326 329
326 506
327 329
328 329
329 330
329 331
332 333
332 444
334 335
334 336
336 379
336 386
336 508
337 338
338 506
339 342
340 342
341 342
342 343
344 345
345 410
346 347
348 350
349 350
350 351
350 510
352 353
353 415
354 358
355 358
356 357
357 445
358 444
358 445
359 445
360 361
360 516
362 363
363 364
364 497
365 518
366 519
367 370
367 514
367 518
367 519
368 519
369 518
371 454
372 452
373 455
374 450
375 452
376 455
377 453
378 379
380 382
381 382
383 385
384 385
385 459
386 387
388 508
389 395
389 509
389 521
390 391
390 531
391 392
391 396
392 393
393 394
395 399
395 499
396 397
397 398
399 401
400 527
401 410
402 403
402 405
402 525
403 404
406 407
406 524
407 408
409 523
410 414
412 413
414 422
415 416
415 520
416 417
416 427
417 418
417 426
418 419
419 420
419 423
420 421
422 425
423 424
425 428
425 481
428 429
428 449
429 432
429 442
430 431
430 446
430 517
431 433
433 434
434 435
434 444
435 436
436 438
438 439
447 448
447 464
447 513
448 450
448 457
449 456
450 451
451 452
452 453
453 454
454 455
456 463
457 458
457 460
459 485
459 490
460 461
461 462
463 468
465 466
467 469
469 470
469 472
470 471
474 475
475 476
476 477
477 478
478 479
478 483
479 480
479 482
484 486
484 487
485 507
487 488
490 491
491 492
491 497
493 494
493 495
495 496
499 506
501 502
501 505
502 503
503 504
507 511
509 510
511 513
512 514
512 520
512 521
513 517
514 515
515 516
517 521
520 522
522 523
523 524
524 525
525 526
526 527
527 528
528 529
529 530
530 531
