# Bromeliaceae clade from the Open Tree of Life; 4191 nodes, 4190 edges; canonical sorted order
0 1
0 2
0 4123
3 4137
4 4108
5 578
6 4056
7 578
8 578
9 578
10 578
11 578
12 578
13 578
14 578
15 578
16 578
17 578
18 578
19 578
20 3898
21 578
22 4129
23 578
24 4137
25 578
26 4140
27 578
28 578
29 578
30 578
31 3937
32 578
33 4101
34 578
35 578
36 578
37 578
38 578
39 578
40 578
41 578
42 578
43 3961
44 578
45 578
46 3930
47 578
48 578
49 578
50 51
50 4064
52 578
53 578
54 55
54 4070
56 578
57 3912
58 578
59 3930
60 578
61 4171
62 4184
63 4190
64 4188
65 578
66 4086
67 578
68 578
69 4184
70 578
71 4096
72 4017
73 578
74 4185
75 578
76 578
77 578
78 578
79 4092
80 578
81 578
82 578
83 4126
84 4183
85 578
86 4063
87 3913
88 578
89 578
90 578
91 578
92 578
93 578
94 95
94 3960
96 578
97 3899
98 578
99 578
100 578
101 578
102 578
103 578
104 105
104 4011
106 3913
107 578
108 578
109 578
110 4091
111 578
112 578
113 578
114 4108
115 3900
116 578
117 578
118 4140
119 578
120 121
120 4069
122 3929
123 578
124 4176
125 578
126 578
127 3929
128 578
129 578
130 578
131 578
132 578
133 578
134 4119
135 4054
136 578
137 578
138 578
139 578
140 578
141 578
142 4129
143 3900
144 578
145 4124
146 578
147 4059
148 578
149 578
150 4186
151 4186
152 578
153 578
154 4173
155 4068
156 578
157 578
158 578
159 578
160 578
161 4127
162 578
163 578
164 4121
165 578
166 4141
167 4163
168 578
169 4126
170 578
171 578
172 578
173 578
174 578
175 4056
176 578
177 578
178 578
179 578
180 578
181 4132
182 578
183 578
184 578
185 578
186 4086
187 578
188 4057
189 578
190 4093
191 4056
192 578
193 578
194 195
194 4190
196 578
197 578
198 578
199 578
200 578
201 4120
202 4102
203 578
204 578
205 578
206 4102
207 4100
208 578
209 578
210 211
210 3911
212 4017
213 578
214 578
215 578
216 578
217 578
218 578
219 578
220 4163
221 4099
222 578
223 4127
224 4095
225 578
226 578
227 3931
228 578
229 4066
230 578
231 578
232 578
233 578
234 578
235 578
236 578
237 578
238 578
239 578
240 4064
241 578
242 578
243 4033
244 578
245 578
246 578
247 3928
248 578
249 578
250 578
251 4097
252 578
253 578
254 578
255 578
256 578
257 578
258 4120
259 578
260 578
261 578
262 578
263 264
263 4097
265 578
266 578
267 578
268 578
269 578
270 578
271 578
272 578
273 578
274 578
275 4138
276 578
277 4128
278 578
279 4187
280 578
281 578
282 578
283 4175
284 4070
285 578
286 578
287 4057
288 4138
289 4080
290 578
291 578
292 4176
293 578
294 578
295 578
296 4173
297 4069
298 3899
299 578
300 303
301 302
301 303
301 578
304 578
305 578
306 4182
307 578
308 4099
309 578
310 578
311 4096
312 313
313 578
314 350
315 350
316 350
317 350
318 350
319 350
320 350
321 350
322 350
323 350
324 350
325 350
326 350
327 350
328 350
329 350
330 350
331 350
332 350
333 350
334 350
335 350
336 350
337 350
338 350
339 350
340 350
341 350
342 350
343 350
344 350
345 350
346 350
347 350
348 350
349 350
350 351
350 352
350 353
350 354
350 355
350 356
350 357
350 358
350 359
350 360
350 3978
361 362
361 363
361 364
361 365
361 4131
366 4155
367 4155
368 4155
369 370
370 578
371 372
372 373
372 4053
374 3902
375 4061
376 4061
377 4060
378 3902
379 3902
380 4072
381 4060
382 3902
383 384
383 4116
385 386
386 387
386 388
386 4016
389 4127
390 4127
391 4127
392 4127
393 4127
394 4127
395 4127
396 4127
397 4127
398 4127
399 4127
400 4127
401 4127
402 4127
403 4127
404 4127
405 4127
406 4127
407 4127
408 4127
409 4127
410 3905
411 4127
412 4127
413 3937
414 3939
415 4127
416 4127
417 4127
418 4127
419 4127
420 4127
421 4127
422 4127
423 4127
424 4127
425 4127
426 4127
427 4127
428 4127
429 4127
430 4127
431 4127
432 4127
433 4127
434 4127
435 4127
436 4127
437 4127
438 4127
439 4127
440 4127
441 4127
442 4127
443 4127
444 3939
445 4127
446 4127
447 4127
448 4127
449 4127
450 4127
451 3938
452 4127
453 4127
454 4127
455 3938
456 4127
457 4127
458 4127
459 4127
460 4127
461 4127
462 4127
463 4127
464 4127
465 4127
466 4127
467 4127
468 4127
469 4051
470 4127
471 4127
472 4127
473 4127
474 479
475 479
476 479
477 479
478 479
479 480
479 3967
481 3966
482 4116
483 578
484 578
485 578
486 578
487 578
488 578
489 578
490 578
491 578
492 4117
493 578
494 4114
495 4115
496 578
497 4117
498 4115
499 578
500 578
501 553
502 553
503 553
504 553
505 553
506 553
507 553
508 553
509 553
510 553
511 553
512 553
513 553
514 553
515 553
516 553
517 553
518 553
519 553
520 553
521 553
522 553
523 553
524 553
525 553
526 553
527 553
528 553
529 553
530 553
531 553
532 553
533 553
534 553
535 553
536 553
537 553
538 553
539 553
540 553
541 553
542 553
543 553
544 553
545 553
546 553
547 553
548 553
549 553
550 553
551 553
552 553
553 554
553 557
553 558
553 559
553 560
553 561
553 562
553 563
553 564
553 566
553 567
553 568
553 569
553 570
553 571
553 572
553 573
553 574
553 575
553 4134
553 4135
555 4135
556 4136
565 4136
576 578
577 578
578 585
578 756
578 1317
578 1477
578 1555
578 1556
578 1665
578 1667
578 1872
578 2386
578 2730
578 2748
578 2754
578 3890
578 3894
578 4114
578 4119
579 585
580 585
581 585
582 585
583 585
584 585
585 586
585 587
588 3902
589 4059
590 3902
591 3902
592 3902
593 3902
594 3902
595 4073
596 3902
597 3902
598 3902
599 3902
600 3902
601 3902
602 3902
603 3902
604 3902
605 3902
606 3934
607 3902
608 3902
609 3902
610 625
610 3971
611 625
612 625
613 625
614 3972
615 3974
616 625
617 625
618 625
619 3972
620 625
621 622
621 625
623 625
624 625
625 626
625 627
625 628
625 629
625 630
625 633
625 634
625 3972
625 3973
631 3973
632 3974
635 4172
636 4068
637 4132
638 4131
639 640
639 3989
641 643
642 643
643 4112
644 645
645 3965
646 4127
647 4127
648 4127
649 4127
650 4127
651 4127
652 4127
653 4127
654 4127
655 4127
656 4125
657 4125
658 4127
659 4127
660 4127
661 4127
662 4188
663 4127
664 4127
665 4127
666 4127
667 4127
668 4127
669 4127
670 4127
671 4127
672 4127
673 4127
674 4127
675 4127
676 4127
677 4127
678 4127
679 4127
680 4127
681 4127
682 4127
683 4127
684 4127
685 4127
686 4127
687 4127
688 4127
689 4127
690 4127
691 4127
692 4127
693 4127
694 4127
695 4127
696 4127
697 4127
698 4127
699 4127
700 4127
701 4127
702 4127
703 4127
704 4127
705 4127
706 4127
707 4127
708 4127
709 4127
710 4127
711 4127
712 4127
713 4127
714 4127
715 4127
716 4127
717 4127
718 4127
719 4127
720 4127
721 4127
722 4127
723 4127
724 4127
725 726
725 4142
727 3922
728 3922
729 3922
730 3922
731 3922
732 3922
733 3922
734 3922
735 3941
736 3922
737 3940
738 3922
739 3941
740 741
740 742
740 3923
743 3922
744 3922
745 3922
746 3922
747 748
747 749
747 3922
750 756
751 756
752 756
753 756
754 756
755 756
757 888
758 888
759 888
760 888
761 888
762 888
763 888
764 817
765 888
766 767
766 768
766 888
769 888
770 888
771 888
772 888
773 888
774 888
775 888
776 888
777 888
778 888
779 888
780 888
781 888
782 888
783 888
784 888
785 888
786 888
787 888
788 888
789 888
790 888
791 888
792 888
793 888
794 888
795 888
796 888
797 888
798 888
799 888
800 888
801 888
802 888
803 888
804 888
805 888
806 888
807 888
808 888
809 888
810 888
811 888
812 888
813 888
814 888
815 888
816 888
817 888
818 888
819 888
820 888
821 888
822 888
823 888
824 888
825 888
826 888
827 888
828 888
829 888
830 888
831 888
832 888
833 888
834 888
835 888
836 888
837 888
838 888
839 888
840 888
841 888
842 888
843 888
844 888
845 888
846 888
847 888
848 888
849 888
850 888
851 888
852 888
853 888
854 888
855 888
856 888
857 888
858 888
859 888
860 888
861 888
862 888
863 888
864 888
865 888
866 888
867 888
868 888
869 888
870 888
871 888
872 888
873 888
874 888
875 888
876 888
877 888
878 888
879 888
880 888
881 888
882 888
883 888
884 888
885 886
885 888
887 888
888 889
888 890
888 891
888 892
888 893
888 894
888 895
888 896
888 897
888 898
888 899
888 900
888 901
888 902
888 903
888 904
888 905
888 906
888 907
888 908
888 909
888 910
888 911
888 912
888 913
888 914
888 915
888 916
888 917
888 918
888 919
888 920
888 921
888 922
888 923
888 924
888 925
888 926
888 927
888 928
888 929
888 930
888 931
888 932
888 933
888 934
888 935
888 936
888 937
888 938
888 939
888 940
888 941
888 942
888 943
888 944
888 945
888 946
888 947
888 948
888 949
888 950
888 951
888 952
888 3927
953 956
954 955
954 956
956 957
956 4011
958 959
958 3932
960 3924
961 3924
962 3924
963 3924
964 3924
965 3924
966 3924
967 3924
968 3924
969 3924
970 3924
971 3924
972 3924
973 3924
974 3924
975 3927
976 3926
977 3924
978 3924
979 3924
980 3924
981 3924
982 3924
983 3924
984 3924
985 3924
986 3924
987 3924
988 3924
989 3924
990 3924
991 3924
992 993
992 996
992 4144
993 994
993 995
997 999
998 999
999 4127
1000 1001
1000 1003
1000 1004
1000 1005
1000 1006
1000 1007
1000 1009
1000 1010
1000 1011
1000 1012
1000 1013
1000 1014
1000 1016
1000 1017
1000 1018
1000 1019
1000 1020
1000 1021
1000 1022
1000 1023
1000 1024
1000 1025
1000 1026
1000 1029
1000 1030
1000 1031
1000 1033
1000 1034
1000 1035
1000 1037
1000 1038
1000 1039
1000 1040
1000 3915
1000 3916
1000 3918
1002 3917
1008 3920
1015 3919
1027 3917
1028 3920
1032 3919
1036 3916
1041 1042
1042 1043
1042 1044
1044 3975
1045 1050
1046 1050
1047 1048
1047 1049
1047 1050
1050 3981
1051 1055
1052 1055
1053 1055
1054 1055
1055 3976
1056 1082
1057 1082
1058 1082
1059 1082
1060 1082
1061 1082
1062 1082
1063 1082
1064 1082
1065 1082
1066 1082
1067 1082
1068 1082
1069 1082
1070 1082
1071 1082
1072 1082
1073 1082
1074 1082
1075 1082
1076 1082
1077 1082
1078 1082
1079 1082
1080 1082
1081 1082
1082 1083
1082 1084
1082 1085
1082 1086
1082 1087
1082 1088
1082 1089
1082 1090
1082 1091
1082 1092
1082 1093
1082 1094
1082 4134
1095 1245
1096 1245
1097 1245
1098 1245
1099 4085
1100 1245
1101 1245
1102 1245
1103 1245
1104 1245
1105 1245
1106 1245
1107 1245
1108 1245
1109 1245
1110 1245
1111 1245
1112 1245
1113 1114
1113 1245
1115 1245
1116 1245
1117 1245
1118 1245
1119 1245
1120 1245
1121 4090
1122 1245
1123 1245
1124 1245
1125 1245
1126 1245
1127 1245
1128 1245
1129 1245
1130 1245
1131 1245
1132 1245
1133 1245
1134 1245
1135 1245
1136 1245
1137 1245
1138 1245
1139 1245
1140 1245
1141 1245
1142 1245
1143 1245
1144 1245
1145 1245
1146 1245
1147 1245
1148 1245
1149 1245
1150 1245
1151 1245
1152 1245
1153 1245
1154 1245
1155 1245
1156 1245
1157 1245
1158 1245
1159 1245
1160 1245
1161 1245
1162 1245
1163 1245
1164 1245
1165 1245
1166 1245
1167 1245
1168 1245
1169 1245
1170 1245
1171 1245
1172 1245
1173 1245
1174 1245
1175 1245
1176 1245
1177 1245
1178 1245
1179 1245
1180 1245
1181 1245
1182 1245
1183 1245
1184 1245
1185 1245
1186 1245
1187 1245
1188 1245
1189 1245
1190 1245
1191 1245
1192 4087
1193 1245
1194 1245
1195 1245
1196 4087
1197 1245
1198 1245
1199 1245
1200 1245
1201 1245
1202 1245
1203 1245
1204 1245
1205 1245
1206 1245
1207 1245
1208 1245
1209 1245
1210 1245
1211 1245
1212 1245
1213 1245
1214 1245
1215 1245
1216 1245
1217 1245
1218 1245
1219 1245
1220 1245
1221 1245
1222 1245
1223 1245
1224 1245
1225 1245
1226 4089
1227 1245
1228 1245
1229 1230
1229 4090
1231 1245
1232 1245
1233 1245
1234 4085
1235 1236
1235 1245
1237 1245
1238 1245
1239 1245
1240 1245
1241 1245
1242 1245
1243 1245
1244 1245
1245 1246
1245 1247
1245 1248
1245 1249
1245 1250
1245 1252
1245 1253
1245 1254
1245 1255
1245 1256
1245 1257
1245 1258
1245 1259
1245 1260
1245 1261
1245 1262
1245 1263
1245 1264
1245 1265
1245 1266
1245 1267
1245 1271
1245 1272
1245 1273
1245 1274
1245 1275
1245 1276
1245 1277
1245 1278
1245 1279
1245 1280
1245 1281
1245 1282
1245 1283
1245 1284
1245 1285
1245 1286
1245 1287
1245 1288
1245 1289
1245 1290
1245 1291
1245 1292
1245 1293
1245 1294
1245 1295
1245 1296
1245 1297
1245 1298
1245 1300
1245 1301
1245 1303
1245 1304
1245 1305
1245 1306
1245 1307
1245 1308
1245 1309
1245 1310
1245 1312
1245 1313
1245 1314
1245 1315
1245 4074
1245 4079
1245 4089
1251 4082
1268 1269
1269 4082
1270 4079
1299 4084
1302 4088
1311 4088
1316 1317
1318 1376
1319 1376
1320 1376
1321 1376
1322 1376
1323 1376
1324 1376
1325 1376
1326 1376
1327 4103
1328 1376
1329 1376
1330 1376
1331 1376
1332 1376
1333 1376
1334 1376
1335 1376
1336 1376
1337 1376
1338 1376
1339 1376
1340 1376
1341 1376
1342 1376
1343 1376
1344 1376
1345 1376
1346 1376
1347 4105
1348 1376
1349 4105
1350 4104
1351 1376
1352 1376
1353 1376
1354 1376
1355 1376
1356 1376
1357 1376
1358 1376
1359 1376
1360 1376
1361 4105
1362 4106
1363 1376
1364 1376
1365 1376
1366 1376
1367 1376
1368 1376
1369 1376
1370 1376
1371 1376
1372 1376
1373 1376
1374 1376
1375 1376
1376 1377
1376 1378
1376 1379
1376 1380
1376 1381
1376 1382
1376 1383
1376 1384
1376 1386
1376 1387
1376 1388
1376 1389
1376 1390
1376 1391
1376 1392
1376 1393
1376 1394
1376 1395
1376 1396
1376 1397
1376 1398
1376 1399
1376 1400
1376 1401
1376 4103
1376 4106
1385 4106
1401 3970
1402 3901
1403 4111
1404 3901
1405 3901
1406 3901
1407 3969
1408 3901
1409 4062
1410 4113
1411 3901
1412 3901
1413 3901
1414 3901
1415 3901
1416 3901
1417 3901
1418 3901
1419 3901
1420 3901
1421 4058
1422 3901
1423 3901
1424 3969
1425 3901
1426 3901
1427 4113
1428 3901
1429 3969
1430 3901
1431 3901
1432 3901
1433 3901
1434 3901
1435 3901
1436 3969
1437 3901
1438 3901
1439 3969
1440 4055
1441 3901
1442 3901
1443 3901
1444 3901
1445 3901
1446 3901
1447 3901
1448 3969
1449 3901
1450 3901
1451 3988
1452 3901
1453 3901
1454 3969
1455 4110
1456 4113
1457 3964
1458 3969
1459 3901
1460 3901
1461 3901
1462 4111
1463 3901
1464 3901
1465 4058
1466 4109
1467 3901
1468 3988
1469 3901
1470 3901
1471 3901
1472 3901
1473 3901
1474 1475
1475 4050
1476 1477
1478 1479
1479 1480
1479 1481
1479 4123
1482 1483
1483 3984
1484 1486
1485 1486
1486 1487
1486 1488
1486 1489
1486 3976
1490 1492
1491 1492
1492 1493
1492 4127
1494 4015
1495 4015
1496 4015
1497 4015
1498 4016
1499 4015
1500 4015
1501 1525
1502 1525
1503 1525
1504 1525
1505 1525
1506 1525
1507 1525
1508 1525
1509 1525
1510 1525
1511 1525
1512 1525
1513 1514
1513 1525
1515 1525
1516 1525
1517 1525
1518 1525
1519 4112
1520 1525
1521 1525
1522 1525
1523 1525
1524 1525
1525 1526
1525 1527
1525 1528
1525 1529
1525 1530
1525 1531
1525 1532
1525 1533
1525 1534
1525 1535
1525 1536
1525 1537
1525 1538
1525 1539
1525 4112
1539 3894
1540 1541
1540 1542
1540 1543
1540 1544
1540 3983
1544 1545
1546 4040
1547 4127
1548 4048
1549 4048
1550 4047
1551 4127
1552 4127
1553 4187
1554 4040
1557 3976
1558 3976
1559 3976
1560 3976
1561 3976
1562 3976
1563 3982
1564 1659
1565 1659
1566 1659
1567 1659
1568 1659
1569 1659
1570 1659
1571 1659
1572 1659
1573 1659
1574 1659
1575 1659
1576 1659
1577 1659
1578 1659
1579 1659
1580 1659
1581 1659
1582 1659
1583 1659
1584 1659
1585 1659
1586 1659
1587 1659
1588 1659
1589 1659
1590 1659
1591 1659
1592 1659
1593 1659
1594 1659
1595 1659
1596 1659
1597 1659
1598 1659
1599 1659
1600 1659
1601 1659
1602 1659
1603 1659
1604 3968
1605 1659
1606 1659
1607 1659
1608 1659
1609 1659
1610 1659
1611 1659
1612 1659
1613 1659
1614 1659
1615 1659
1616 1659
1617 1659
1618 1659
1619 1659
1620 1659
1621 1659
1622 1659
1623 1659
1624 1659
1625 1659
1626 1659
1627 1659
1628 1659
1629 1659
1630 1659
1631 1659
1632 1659
1633 3968
1634 1659
1635 1659
1636 1659
1637 1659
1638 1659
1639 1659
1640 1659
1641 1659
1642 1659
1643 1659
1644 1659
1645 1659
1646 1659
1647 1659
1648 1659
1649 1659
1650 1659
1651 1659
1652 1659
1653 1659
1654 1659
1655 1659
1656 1659
1657 1659
1658 1659
1659 3966
1659 3967
1660 1662
1661 1662
1662 1663
1662 4141
1664 1665
1666 1667
1668 4127
1669 4127
1670 4127
1671 4127
1672 4127
1673 4127
1674 4127
1675 4127
1676 4127
1677 4127
1678 3935
1679 4127
1680 4127
1681 4127
1682 4127
1683 4127
1684 4127
1685 4127
1686 4127
1687 4127
1688 3895
1689 4127
1690 4127
1691 4127
1692 4127
1693 4127
1694 4127
1695 4127
1696 4127
1697 4127
1698 4127
1699 4127
1700 4127
1701 4127
1702 4127
1703 4127
1704 4127
1705 4127
1706 4127
1707 4127
1708 4127
1709 4127
1710 4127
1711 4127
1712 4127
1713 4127
1714 4127
1715 4127
1716 4127
1717 4127
1718 4127
1719 4127
1720 4127
1721 4127
1722 4127
1723 4127
1724 4127
1725 3935
1726 4127
1727 4127
1728 4127
1729 4127
1730 4127
1731 4127
1732 4127
1733 4127
1734 4127
1735 4127
1736 4127
1737 4127
1738 4127
1739 4127
1740 4127
1741 4127
1742 4127
1743 4127
1744 4127
1745 4127
1746 4127
1747 4127
1748 4127
1749 4127
1750 4127
1751 4127
1752 4127
1753 4127
1754 4127
1755 4127
1756 4127
1757 4127
1758 4127
1759 4127
1760 4127
1761 3933
1762 4127
1763 4127
1764 4127
1765 4127
1766 4127
1767 4127
1768 4127
1769 4127
1770 4127
1771 4127
1772 4127
1773 4127
1774 4127
1775 4127
1776 4127
1777 4127
1778 4127
1779 4127
1780 4127
1781 4127
1782 4127
1783 4127
1784 4127
1785 4127
1786 4127
1787 4127
1788 4127
1789 4127
1790 4127
1791 4127
1792 4127
1793 4127
1794 4127
1795 4127
1796 4127
1797 1851
1798 1851
1799 1851
1800 1851
1801 1851
1802 1851
1803 1851
1804 1851
1805 1851
1806 1851
1807 1851
1808 1851
1809 1851
1810 1851
1811 1851
1812 1851
1813 1851
1814 1851
1815 1851
1816 1851
1817 1851
1818 1851
1819 1851
1820 1851
1821 1851
1822 1851
1823 1851
1824 1851
1825 1851
1826 1851
1827 1851
1828 1851
1829 1851
1830 1851
1831 1851
1832 1851
1833 1851
1834 1851
1835 1851
1836 1851
1837 1851
1838 1851
1839 1851
1840 1851
1841 1851
1842 1851
1843 1851
1844 1851
1845 1851
1846 1851
1847 1851
1848 1851
1849 1851
1850 1851
1851 1852
1851 1853
1851 1854
1851 1855
1851 1856
1851 1857
1851 1858
1851 1859
1851 1860
1851 1861
1851 1862
1851 1863
1851 1864
1851 1865
1851 1866
1851 1867
1851 1868
1851 3960
1869 1872
1870 1872
1871 1872
1873 4143
1874 4143
1875 4145
1876 4143
1877 4143
1878 4145
1879 1927
1880 1927
1881 1927
1882 1927
1883 1927
1884 1927
1885 1927
1886 1927
1887 1927
1888 1927
1889 1927
1890 1927
1891 1927
1892 1927
1893 1927
1894 1927
1895 1927
1896 1927
1897 1927
1898 1927
1899 1927
1900 1927
1901 1927
1902 1927
1903 1927
1904 1927
1905 1927
1906 1927
1907 1927
1908 1927
1909 1927
1910 1927
1911 1927
1912 1927
1913 1927
1914 1927
1915 1927
1916 1927
1917 1927
1918 1927
1919 1927
1920 1927
1921 1927
1922 1927
1923 1927
1924 1927
1925 1927
1926 1927
1927 1928
1927 1929
1927 1930
1927 1931
1927 1932
1927 1933
1927 1934
1927 1935
1927 1936
1927 1937
1927 1938
1927 1939
1927 1940
1927 1941
1927 1942
1927 1943
1927 1944
1927 1945
1927 4177
1946 4118
1947 4118
1948 4118
1949 4118
1950 4118
1951 4118
1952 4118
1953 4118
1954 4118
1955 4118
1956 4118
1957 4118
1958 4118
1959 4118
1960 4118
1961 4118
1962 4118
1963 4118
1964 4118
1965 4118
1966 4118
1967 4118
1968 4118
1969 4118
1970 4118
1971 4118
1972 4118
1973 4118
1974 4118
1975 4118
1976 4118
1977 4118
1978 4118
1979 4118
1980 4118
1981 4118
1982 4118
1983 4118
1984 3955
1985 4118
1986 4118
1987 4118
1988 4118
1989 4118
1990 4118
1991 4118
1992 4118
1993 4118
1994 4118
1995 3952
1996 4118
1997 4118
1998 4118
1999 4118
2000 4118
2001 4118
2002 4118
2003 4118
2004 4118
2005 4118
2006 4118
2007 4118
2008 4118
2009 4118
2010 4118
2011 4118
2012 4118
2013 4118
2014 4118
2015 4118
2016 4118
2017 4118
2018 4118
2019 4118
2020 4118
2021 4118
2022 4118
2023 4118
2024 4118
2025 4118
2026 4118
2027 4118
2028 4118
2029 3958
2030 4118
2031 4118
2032 4118
2033 4118
2034 4118
2035 4118
2036 4118
2037 4118
2038 4118
2039 4118
2040 4118
2041 4118
2042 4118
2043 4118
2044 4118
2045 4118
2046 4118
2047 4118
2048 4118
2049 3951
2050 4118
2051 4118
2052 4118
2053 4118
2054 4118
2055 4118
2056 4118
2057 4118
2058 4118
2059 4118
2060 4118
2061 4118
2062 4118
2063 4118
2064 4118
2065 4118
2066 4118
2067 4118
2068 4118
2069 4118
2070 4118
2071 4118
2072 4118
2073 4118
2074 4118
2075 4118
2076 4118
2077 4118
2078 4118
2079 4118
2080 4118
2081 4118
2082 4118
2083 4118
2084 4118
2085 4118
2086 4118
2087 4118
2088 4118
2089 4118
2090 4118
2091 4118
2092 4118
2093 3943
2094 4118
2095 4118
2096 4118
2097 4118
2098 4118
2099 4118
2100 2101
2100 4118
2102 4118
2103 4118
2104 4118
2105 4118
2106 4118
2107 4118
2108 4118
2109 4118
2110 4118
2111 4118
2112 4118
2113 4118
2114 4118
2115 4118
2116 4118
2117 4118
2118 4118
2119 4118
2120 4118
2121 4118
2122 4118
2123 4118
2124 4118
2125 4118
2126 4118
2127 4118
2128 4118
2129 4118
2130 4118
2131 4118
2132 4118
2133 4118
2134 4118
2135 4118
2136 4118
2137 4118
2138 4118
2139 4118
2140 3958
2141 4118
2142 4118
2143 3949
2144 4118
2145 4118
2146 4118
2147 4118
2148 4118
2149 4118
2150 4118
2151 4118
2152 4118
2153 4118
2154 4118
2155 4118
2156 4118
2157 4118
2158 4118
2159 4118
2160 4118
2161 4118
2162 4118
2163 4118
2164 4118
2165 4118
2166 4118
2167 4118
2168 4118
2169 4118
2170 4118
2171 4118
2172 4118
2173 4118
2174 4118
2175 4118
2176 4118
2177 4118
2178 4118
2179 4118
2180 4118
2181 4118
2182 4118
2183 4118
2184 4118
2185 4118
2186 4118
2187 4118
2188 4118
2189 4118
2190 4118
2191 4118
2192 4118
2193 4118
2194 4118
2195 4118
2196 4118
2197 4118
2198 4118
2199 4118
2200 4118
2201 4118
2202 4118
2203 4118
2204 4118
2205 4118
2206 4118
2207 4118
2208 4118
2209 4118
2210 4118
2211 4118
2212 4118
2213 4118
2214 4118
2215 4118
2216 4118
2217 4118
2218 4118
2219 4118
2220 4118
2221 4118
2222 4118
2223 4118
2224 4118
2225 4118
2226 4118
2227 4118
2228 4118
2229 4118
2230 4118
2231 4118
2232 4118
2233 4118
2234 3954
2235 4118
2236 4118
2237 4118
2238 4118
2239 4118
2240 4118
2241 4118
2242 4118
2243 4118
2244 4118
2245 4118
2246 4118
2247 4118
2248 4118
2249 4118
2250 4118
2251 4118
2252 4118
2253 3953
2254 4118
2255 4118
2256 4118
2257 4118
2258 4118
2259 4118
2260 4118
2261 4118
2262 3946
2263 4118
2264 4118
2265 4118
2266 4118
2267 4118
2268 4118
2269 3953
2270 4118
2271 4118
2272 4118
2273 4118
2274 4118
2275 4118
2276 4118
2277 4118
2278 4118
2279 3948
2280 4118
2281 4118
2282 4118
2283 4118
2284 4118
2285 4118
2286 4118
2287 4118
2288 4118
2289 4118
2290 4118
2291 4118
2292 4118
2293 4118
2294 4118
2295 4118
2296 4118
2297 4118
2298 4118
2299 4118
2300 4118
2301 4118
2302 4118
2303 4118
2304 3952
2305 4118
2306 4118
2307 4118
2308 4118
2309 4118
2310 3951
2311 3956
2312 4146
2313 4118
2314 4118
2315 4118
2316 4118
2317 4118
2318 4118
2319 4118
2320 4118
2321 4118
2322 4118
2323 4118
2324 4118
2325 4118
2326 4118
2327 4118
2328 4118
2329 4118
2330 4118
2331 4118
2332 4118
2333 4118
2334 4118
2335 4118
2336 4118
2337 4118
2338 4118
2339 4118
2340 4118
2341 4118
2342 4118
2343 4118
2344 4118
2345 4118
2346 4118
2347 4118
2348 4118
2349 4118
2350 4118
2351 4118
2352 4118
2353 4118
2354 4118
2355 4118
2356 4118
2357 4118
2358 4118
2359 3956
2360 4118
2361 4118
2362 4118
2363 4118
2364 4118
2365 3947
2366 4118
2367 4118
2368 2374
2369 2374
2370 2374
2371 2374
2372 2374
2373 2374
2374 2375
2374 2376
2374 2380
2374 4065
2376 2377
2376 2378
2376 2379
2381 2383
2382 2383
2383 2384
2383 4001
2384 2385
2386 2387
2388 2546
2389 2546
2390 2546
2391 2546
2392 2546
2393 2546
2394 2546
2395 2546
2396 2546
2397 2546
2398 4150
2399 2546
2400 2546
2401 2402
2401 4168
2403 2546
2404 2546
2405 2546
2406 4148
2407 2546
2408 2546
2409 2546
2410 2546
2411 2546
2412 2546
2413 2546
2414 2546
2415 4162
2416 4164
2417 2546
2418 2546
2419 2546
2420 2546
2421 2546
2422 2546
2423 2546
2424 2546
2425 2546
2426 2546
2427 2546
2428 4151
2429 2546
2430 4165
2431 2546
2432 2546
2433 2546
2434 2546
2435 2436
2435 4169
2437 2546
2438 4159
2439 2546
2440 2546
2441 2546
2442 2546
2443 2546
2444 2546
2445 2546
2446 4158
2447 4150
2448 2546
2449 2546
2450 2546
2451 2546
2452 2546
2453 4152
2454 2546
2455 2546
2456 2546
2457 2546
2458 2546
2459 2546
2460 2546
2461 4151
2462 4150
2463 2546
2464 2546
2465 2546
2466 2546
2467 2546
2468 2546
2469 2546
2470 2546
2471 4165
2472 2546
2473 2546
2474 2546
2475 2546
2476 2546
2477 4158
2478 2546
2479 2546
2480 2546
2481 2546
2482 2546
2483 2546
2484 4160
2485 4150
2486 4150
2487 2546
2488 2546
2489 2546
2490 2546
2491 2546
2492 2546
2493 2546
2494 2546
2495 2546
2496 2546
2497 2546
2498 2546
2499 2546
2500 2546
2501 2546
2502 2546
2503 4154
2504 2546
2505 2546
2506 2546
2507 4167
2508 2546
2509 2546
2510 2546
2511 4158
2512 2546
2513 2546
2514 2546
2515 2546
2516 2546
2517 2546
2518 2546
2519 2546
2520 2546
2521 2546
2522 4153
2523 2546
2524 2546
2525 2546
2526 2546
2527 2546
2528 2546
2529 4166
2530 2546
2531 4168
2532 2546
2533 2546
2534 2546
2535 4152
2536 2546
2537 2546
2538 4162
2539 2546
2540 2546
2541 4157
2542 4161
2543 2546
2544 2546
2545 2546
2546 2547
2546 2548
2546 2549
2546 2550
2546 2551
2546 2552
2546 2553
2546 2554
2546 2555
2546 2556
2546 2557
2546 2558
2546 2559
2546 2560
2546 2561
2546 2562
2546 2564
2546 2566
2546 2567
2546 2568
2546 2569
2546 2570
2546 2571
2546 2572
2546 2573
2546 2574
2546 2575
2546 2576
2546 2577
2546 2578
2546 2580
2546 2581
2546 2582
2546 2583
2546 2584
2546 2585
2546 2586
2546 2587
2546 2588
2546 2589
2546 2590
2546 2591
2546 2592
2546 2593
2546 2594
2546 2595
2546 2597
2546 2598
2546 2599
2546 2600
2546 2601
2546 2602
2546 2604
2546 2605
2546 2606
2546 2607
2546 2609
2546 2610
2546 2611
2546 2612
2546 2613
2546 2614
2546 2615
2546 2616
2546 2617
2546 2619
2546 2621
2546 4147
2546 4166
2563 4161
2565 4150
2579 4151
2596 4156
2603 4151
2608 4169
2618 4154
2620 4150
2621 4146
2622 4127
2623 4127
2624 4127
2625 3910
2626 4127
2627 4127
2628 4127
2629 4073
2630 4127
2631 4127
2632 4127
2633 4127
2634 4127
2635 4127
2636 4006
2637 4127
2638 4127
2639 3910
2640 4127
2641 4127
2642 4127
2643 4127
2644 4127
2645 2692
2646 2692
2647 2692
2648 2692
2649 2692
2650 2692
2651 2692
2652 2692
2653 2692
2654 2692
2655 2692
2656 2692
2657 2692
2658 2692
2659 4010
2660 2692
2661 2692
2662 2692
2663 2692
2664 2692
2665 2692
2666 2692
2667 2692
2668 2692
2669 2692
2670 2692
2671 2692
2672 2692
2673 2692
2674 2692
2675 2692
2676 2692
2677 2692
2678 2692
2679 2692
2680 2692
2681 2692
2682 2692
2683 2692
2684 2692
2685 2692
2686 2692
2687 2692
2688 2689
2688 2690
2688 2692
2691 2692
2692 2693
2692 2694
2692 2695
2692 2697
2692 2698
2692 2699
2692 2700
2692 2701
2692 2702
2692 2703
2692 2704
2692 2705
2692 2706
2692 2708
2692 2710
2692 2711
2692 2714
2692 2715
2692 2716
2692 2717
2692 2718
2692 2719
2692 2720
2692 2721
2692 2722
2692 2723
2692 2724
2692 2725
2692 2726
2692 2727
2692 4008
2692 4009
2695 2696
2707 4009
2709 4010
2711 2712
2711 2713
2728 2730
2729 2730
2731 3907
2732 4121
2733 3907
2734 3907
2735 4178
2736 4189
2737 4180
2738 3907
2739 4180
2740 4180
2741 4189
2742 4171
2743 3898
2744 4170
2745 2748
2746 2748
2747 2748
2748 2749
2750 2754
2751 2754
2752 2754
2753 2754
2754 2755
2754 2756
2757 2776
2758 2776
2759 2776
2760 2776
2761 2776
2762 2776
2763 2776
2764 2776
2765 2776
2766 2776
2767 2776
2768 2776
2769 2776
2770 2776
2771 2776
2772 2776
2773 2776
2774 2776
2775 2776
2776 2777
2776 2778
2776 2779
2776 3963
2780 3977
2781 3977
2782 3977
2783 3977
2784 3977
2785 3977
2786 3977
2787 3977
2788 3977
2789 3977
2790 3977
2791 3977
2792 3977
2793 3977
2794 3977
2795 3977
2796 3977
2797 3977
2798 3977
2799 3977
2800 3977
2801 3977
2802 3977
2803 3977
2804 3977
2805 3977
2806 3977
2807 3977
2808 3977
2809 3977
2810 3977
2811 3977
2812 3977
2813 3977
2814 3977
2815 3977
2816 3977
2817 3977
2818 3977
2819 4026
2820 3977
2821 3977
2822 3977
2823 4022
2824 3977
2825 3977
2826 3977
2827 3977
2828 3977
2829 4002
2830 3977
2831 3977
2832 4013
2833 3977
2834 3977
2835 3977
2836 3977
2837 4032
2838 3977
2839 3977
2840 3977
2841 3977
2842 3977
2843 3977
2844 3977
2845 3977
2846 3977
2847 3999
2848 4041
2849 3977
2850 3977
2851 3977
2852 3977
2853 3977
2854 4014
2855 3977
2856 3977
2857 4012
2858 3977
2859 3977
2860 3977
2861 4026
2862 3977
2863 4032
2864 4045
2865 3977
2866 3977
2867 3977
2868 3977
2869 3977
2870 3977
2871 3977
2872 3977
2873 3977
2874 3977
2875 3977
2876 3977
2877 4042
2878 3977
2879 3977
2880 3977
2881 3977
2882 4039
2883 3977
2884 3977
2885 3977
2886 3977
2887 3998
2888 3977
2889 3977
2890 3977
2891 4046
2892 3977
2893 3977
2894 3977
2895 3977
2896 3977
2897 3977
2898 3977
2899 3977
2900 3977
2901 3977
2902 3977
2903 3977
2904 3977
2905 3977
2906 3977
2907 3977
2908 3977
2909 3977
2910 3977
2911 3977
2912 3977
2913 3977
2914 3977
2915 3977
2916 4031
2917 3977
2918 3977
2919 3977
2920 3977
2921 3977
2922 3977
2923 3977
2924 3977
2925 3977
2926 3977
2927 3977
2928 3977
2929 3977
2930 3977
2931 3977
2932 3977
2933 3977
2934 3977
2935 3977
2936 3977
2937 3977
2938 3977
2939 3977
2940 4044
2941 3977
2942 3977
2943 3977
2944 3977
2945 3977
2946 2947
2946 4018
2948 3977
2949 3977
2950 3977
2951 3977
2952 3977
2953 3977
2954 3977
2955 3977
2956 3977
2957 3977
2958 3977
2959 3977
2960 3977
2961 3977
2962 3977
2963 3977
2964 3977
2965 3977
2966 3977
2967 3977
2968 3977
2969 3977
2970 3977
2971 3977
2972 3977
2973 3977
2974 4041
2975 2976
2975 3977
2977 3977
2978 3977
2979 3977
2980 3977
2981 4031
2982 3977
2983 3977
2984 3991
2985 3977
2986 3977
2987 3977
2988 3977
2989 3977
2990 3977
2991 3977
2992 3977
2993 2994
2993 3977
2995 3977
2996 3977
2997 3977
2998 3977
2999 3977
3000 3977
3001 3977
3002 3977
3003 3977
3004 3977
3005 3977
3006 3977
3007 3977
3008 3977
3009 3977
3010 3977
3011 4004
3012 4034
3013 3977
3014 3977
3015 3977
3016 3977
3017 3977
3018 3019
3018 3020
3018 4000
3021 3977
3022 3977
3023 3024
3023 3977
3025 3977
3026 3977
3027 3977
3028 3977
3029 3977
3030 3977
3031 3977
3032 3977
3033 3977
3034 3977
3035 3977
3036 3977
3037 3977
3038 3977
3039 3977
3040 3977
3041 3977
3042 3977
3043 3977
3044 3045
3044 3977
3046 4028
3047 3977
3048 3049
3048 3977
3050 3977
3051 3977
3052 3977
3053 3977
3054 3977
3055 3977
3056 3977
3057 3977
3058 3977
3059 3977
3060 3977
3061 3977
3062 3977
3063 3977
3064 3977
3065 3994
3066 3977
3067 3977
3068 3977
3069 3977
3070 3977
3071 3977
3072 3977
3073 3977
3074 3977
3075 3977
3076 3977
3077 3977
3078 3977
3079 3977
3080 4037
3081 4042
3082 3977
3083 3977
3084 3977
3085 3977
3086 3977
3087 3977
3088 3977
3089 3977
3090 3977
3091 3977
3092 3977
3093 3977
3094 3977
3095 3977
3096 3977
3097 3977
3098 3977
3099 3977
3100 3977
3101 3977
3102 3977
3103 3977
3104 3977
3105 3977
3106 3977
3107 3977
3108 3109
3108 3977
3110 3977
3111 3977
3112 4024
3113 3977
3114 3977
3115 3977
3116 3977
3117 3977
3118 4000
3119 3977
3120 3977
3121 3977
3122 3977
3123 4043
3124 3977
3125 3977
3126 3977
3127 3977
3128 3977
3129 3997
3130 3977
3131 3977
3132 3977
3133 3977
3134 3977
3135 3977
3136 3977
3137 3977
3138 3977
3139 3977
3140 3977
3141 3977
3142 3977
3143 3977
3144 3145
3144 3977
3146 3977
3147 3977
3148 3977
3149 3977
3150 3977
3151 3977
3152 3977
3153 3977
3154 3977
3155 3977
3156 3977
3157 3977
3158 3977
3159 3977
3160 3977
3161 3977
3162 3977
3163 3977
3164 3977
3165 3977
3166 3977
3167 3977
3168 3977
3169 3977
3170 3977
3171 3977
3172 3173
3172 3977
3174 3977
3175 3977
3176 3977
3177 3977
3178 3977
3179 3977
3180 3977
3181 3977
3182 3977
3183 3977
3184 3977
3185 3977
3186 4003
3187 3977
3188 3977
3189 3977
3190 3977
3191 3977
3192 4046
3193 3977
3194 3977
3195 3977
3196 3977
3197 3977
3198 3977
3199 3977
3200 3977
3201 3977
3202 3977
3203 3977
3204 3977
3205 3977
3206 3977
3207 3977
3208 3977
3209 3977
3210 3977
3211 3977
3212 3977
3213 3977
3214 4039
3215 3977
3216 3977
3217 3977
3218 3977
3219 3977
3220 3977
3221 3977
3222 3977
3223 3977
3224 3977
3225 3977
3226 3977
3227 3977
3228 3977
3229 3977
3230 3977
3231 3977
3232 3977
3233 3977
3234 3977
3235 3977
3236 3977
3237 3977
3238 3977
3239 3977
3240 3977
3241 3977
3242 3977
3243 3977
3244 3977
3245 3977
3246 4003
3247 3977
3248 3977
3249 3977
3250 3977
3251 3977
3252 3977
3253 3977
3254 3977
3255 3977
3256 3977
3257 3977
3258 3977
3259 3977
3260 3977
3261 3977
3262 3977
3263 3977
3264 3977
3265 3977
3266 3977
3267 3977
3268 3977
3269 4025
3270 3977
3271 3977
3272 3977
3273 3977
3274 3977
3275 3977
3276 3977
3277 3977
3278 3977
3279 3977
3280 3977
3281 3977
3282 3977
3283 3977
3284 3977
3285 3977
3286 3977
3287 4045
3288 3977
3289 3977
3290 3977
3291 3977
3292 3977
3293 3977
3294 3977
3295 4002
3296 3977
3297 3977
3298 3977
3299 3977
3300 3977
3301 3977
3302 3977
3303 3977
3304 3977
3305 3977
3306 3307
3306 3977
3308 3977
3309 3977
3310 3977
3311 3977
3312 4034
3313 3314
3313 3977
3315 3977
3316 3977
3317 3977
3318 3977
3319 4001
3320 3977
3321 3977
3322 3977
3323 3977
3324 3977
3325 3977
3326 3977
3327 3977
3328 3977
3329 3977
3330 3977
3331 3977
3332 3977
3333 3977
3334 3977
3335 3977
3336 3977
3337 3977
3338 3977
3339 3977
3340 3977
3341 3977
3342 3977
3343 3977
3344 3977
3345 3977
3346 3977
3347 3977
3348 3977
3349 3977
3350 3977
3351 3977
3352 3977
3353 3977
3354 3977
3355 3977
3356 3998
3357 3977
3358 3977
3359 3977
3360 3977
3361 3977
3362 3977
3363 3977
3364 3977
3365 3977
3366 3977
3367 3977
3368 3977
3369 3977
3370 3977
3371 3977
3372 3977
3373 3977
3374 3977
3375 3980
3376 3977
3377 3977
3378 3977
3379 3977
3380 3977
3381 3977
3382 3977
3383 3977
3384 3977
3385 3977
3386 3977
3387 3977
3388 3977
3389 3977
3390 3977
3391 3977
3392 3393
3392 3977
3394 3977
3395 3977
3396 3977
3397 3977
3398 3977
3399 3977
3400 3977
3401 3977
3402 3977
3403 3977
3404 3977
3405 3977
3406 3977
3407 3977
3408 3977
3409 3977
3410 4019
3411 3977
3412 3977
3413 3977
3414 3415
3414 3977
3416 3977
3417 3977
3418 3977
3419 3977
3420 3977
3421 3977
3422 3977
3423 3977
3424 3977
3425 3977
3426 3977
3427 3977
3428 3977
3429 3977
3430 3977
3431 3977
3432 3977
3433 3977
3434 3977
3435 3436
3435 3977
3437 3977
3438 3977
3439 3977
3440 4029
3441 3442
3442 3443
3442 4004
3444 3977
3445 3977
3446 3977
3447 3977
3448 3977
3449 3977
3450 3977
3451 3977
3452 3977
3453 3977
3454 3977
3455 3977
3456 3977
3457 3977
3458 3977
3459 3977
3460 3977
3461 4014
3462 3977
3463 3977
3464 3977
3465 3977
3466 3977
3467 3977
3468 3977
3469 3470
3469 3977
3471 3977
3472 3977
3473 3977
3474 3977
3475 3977
3476 3977
3477 3977
3478 3977
3479 3977
3480 3977
3481 3484
3482 3484
3483 3484
3484 3485
3484 3486
3484 4019
3486 3487
3488 3963
3489 3963
3490 3963
3491 3963
3492 3963
3493 3963
3494 3963
3495 3963
3496 3963
3497 3963
3498 3963
3499 3963
3500 3963
3501 3963
3502 3963
3503 3963
3504 3963
3505 3963
3506 3963
3507 3963
3508 3963
3509 3963
3510 3963
3511 3963
3512 3963
3513 3963
3514 3963
3515 3963
3516 3963
3517 3963
3518 3963
3519 3963
3520 3963
3521 3963
3522 3963
3523 3963
3524 3963
3525 4078
3526 3963
3527 3963
3528 3963
3529 3963
3530 3963
3531 3963
3532 3963
3533 3963
3534 3963
3535 3963
3536 3963
3537 3963
3538 3963
3539 3540
3539 3541
3539 4075
3542 3963
3543 3963
3544 3963
3545 3963
3546 3963
3547 3963
3548 3963
3549 3963
3550 3963
3551 3963
3552 3963
3553 3963
3554 3963
3555 3963
3556 3963
3557 3963
3558 3963
3559 3963
3560 3963
3561 3963
3562 3963
3563 3963
3564 3963
3565 3963
3566 3963
3567 3963
3568 3963
3569 3963
3570 3963
3571 3963
3572 3963
3573 3574
3573 3963
3575 3963
3576 3963
3577 3963
3578 3963
3579 3963
3580 3963
3581 3963
3582 3963
3583 3963
3584 3963
3585 3963
3586 3963
3587 3963
3588 3963
3589 3590
3589 3591
3589 3963
3592 3963
3593 3963
3594 3963
3595 3963
3596 3963
3597 3963
3598 3963
3599 3963
3600 3963
3601 3963
3602 3963
3603 3963
3604 3963
3605 3963
3606 3963
3607 3963
3608 3963
3609 3963
3610 3963
3611 3963
3612 3963
3613 3963
3614 3963
3615 3963
3616 3963
3617 3963
3618 3963
3619 3963
3620 3963
3621 4078
3622 3963
3623 3963
3624 3963
3625 3963
3626 3963
3627 3963
3628 3963
3629 3963
3630 3963
3631 3963
3632 3963
3633 3963
3634 3963
3635 3963
3636 3963
3637 3963
3638 3963
3639 3963
3640 3963
3641 3963
3642 3963
3643 3963
3644 3963
3645 3963
3646 3963
3647 3963
3648 3963
3649 3963
3650 3963
3651 3963
3652 3963
3653 3963
3654 3963
3655 3963
3656 3963
3657 3963
3658 3963
3659 3963
3660 3963
3661 3963
3662 3963
3663 3963
3664 3963
3665 3963
3666 3963
3667 3963
3668 3963
3669 3963
3670 3963
3671 3963
3672 3963
3673 3963
3674 3963
3675 3963
3676 3963
3677 3963
3678 3963
3679 3963
3680 3963
3681 3963
3682 3963
3683 3963
3684 3963
3685 3963
3686 3963
3687 3963
3688 3963
3689 3963
3690 3963
3691 3963
3692 3963
3693 3963
3694 3963
3695 3963
3696 3963
3697 3963
3698 3963
3699 3963
3700 3701
3700 3702
3700 3963
3703 3963
3704 3963
3705 3963
3706 3707
3706 3963
3708 3963
3709 3963
3710 3711
3710 4127
3712 3963
3713 3963
3714 3963
3715 3963
3716 3963
3717 3963
3718 3963
3719 3963
3720 3963
3721 3963
3722 3963
3723 3963
3724 3963
3725 3963
3726 3963
3727 3963
3728 3963
3729 3963
3730 3963
3731 3963
3732 3963
3733 3963
3734 3963
3735 3736
3735 3963
3737 3963
3738 3963
3739 3963
3740 3963
3741 3963
3742 3963
3743 3963
3744 4077
3745 3963
3746 3963
3747 3748
3747 3963
3749 3963
3750 3963
3751 3963
3752 3963
3753 3963
3754 3963
3755 3963
3756 3963
3757 3963
3758 3963
3759 3963
3760 3963
3761 3963
3762 3963
3763 3963
3764 3963
3765 3963
3766 3963
3767 3963
3768 3963
3769 3963
3770 3963
3771 3963
3772 3773
3772 3774
3772 3963
3775 3963
3776 3963
3777 3963
3778 3963
3779 3963
3780 3963
3781 3963
3782 3963
3783 3963
3784 3963
3785 3963
3786 3963
3787 3963
3788 3963
3789 3963
3790 3963
3791 3963
3792 3963
3793 3963
3794 3963
3795 3963
3796 3963
3797 3982
3798 3963
3799 3963
3800 3803
3801 3803
3802 3803
3803 3976
3804 3805
3805 3978
3806 3857
3807 3857
3808 3857
3809 3857
3810 3857
3811 3857
3812 3857
3813 3857
3814 3857
3815 3857
3816 3857
3817 3857
3818 3857
3819 3857
3820 3857
3821 3857
3822 3857
3823 3857
3824 3857
3825 3857
3826 3857
3827 3857
3828 3857
3829 3857
3830 3857
3831 3857
3832 3857
3833 3857
3834 3857
3835 3857
3836 3857
3837 3987
3838 3857
3839 3857
3840 3857
3841 3857
3842 3857
3843 3857
3844 3857
3845 3857
3846 3857
3847 3857
3848 3857
3849 3857
3850 3857
3851 3857
3852 3857
3853 3857
3854 3857
3855 3987
3856 3857
3857 3858
3857 3859
3857 3860
3857 3861
3857 3862
3857 3863
3857 3864
3857 3865
3857 3866
3857 3868
3857 3869
3857 3870
3857 3871
3857 3872
3857 3873
3857 3874
3857 3875
3857 3876
3857 3877
3857 3878
3857 3879
3857 3880
3857 3881
3857 3882
3857 3884
3857 3885
3857 3886
3857 3887
3857 3888
3857 3889
3857 3984
3857 3985
3867 3986
3883 3986
3890 3891
3892 3893
3892 3989
3894 3963
3895 3901
3895 4123
3895 4177
3896 3897
3896 3900
3896 4174
3897 3898
3897 3899
3901 3902
3901 3907
3902 3903
3902 4065
3903 3904
3903 4049
3904 3905
3904 4033
3905 3906
3906 3908
3906 4017
3907 3921
3907 4174
3908 3909
3908 3959
3909 3910
3909 3932
3909 3937
3910 3911
3910 3925
3911 3912
3912 3913
3914 3915
3914 3942
3914 4118
3915 3922
3916 3917
3918 3919
3918 3920
3921 3931
3921 4170
3922 3923
3922 3940
3923 3924
3924 3926
3925 3928
3925 3930
3926 3927
3928 3929
3931 3936
3931 4163
3932 3933
3933 3934
3934 3935
3936 3957
3936 4141
3937 3938
3938 3939
3940 3941
3942 3943
3942 3958
3943 3944
3944 3945
3944 3954
3945 3946
3945 3953
3946 3947
3947 3948
3948 3949
3949 3950
3950 3951
3950 3952
3954 3955
3955 3956
3957 3961
3957 4121
3959 3960
3959 4006
3961 3962
3962 3964
3962 4113
3963 3970
3963 4067
3964 3969
3965 3966
3965 4067
3967 3968
3969 3988
3969 4055
3970 3971
3971 3975
3973 3974
3975 3976
3976 3977
3976 4074
3977 3978
3977 3990
3978 3979
3979 3980
3979 3983
3979 3989
3980 3981
3981 3982
3983 3984
3985 3986
3985 3987
3990 3991
3990 4005
3991 3992
3992 3993
3992 4003
3993 3994
3993 4002
3994 3995
3995 3996
3995 4001
3996 3997
3996 3999
3997 3998
3999 4000
4003 4004
4005 4007
4005 4018
4006 4011
4007 4008
4007 4015
4008 4012
4009 4010
4012 4013
4013 4014
4015 4016
4018 4019
4018 4020
4020 4021
4020 4046
4021 4022
4021 4035
4022 4023
4023 4024
4023 4027
4024 4025
4025 4026
4027 4028
4027 4034
4028 4029
4029 4030
4030 4031
4030 4032
4033 4040
4033 4047
4035 4036
4035 4043
4036 4037
4036 4042
4037 4038
4038 4039
4038 4041
4043 4044
4044 4045
4047 4048
4049 4050
4049 4059
4050 4051
4051 4052
4052 4053
4052 4057
4053 4054
4054 4056
4055 4058
4059 4060
4059 4062
4060 4061
4062 4063
4063 4064
4065 4066
4065 4071
4066 4068
4066 4069
4066 4070
4067 4118
4071 4072
4071 4076
4072 4073
4074 4075
4075 4077
4076 4080
4076 4107
4077 4078
4079 4081
4079 4088
4080 4086
4080 4091
4081 4082
4081 4083
4083 4084
4083 4087
4084 4085
4089 4090
4091 4092
4091 4098
4092 4093
4093 4094
4094 4095
4094 4097
4095 4096
4098 4099
4098 4100
4100 4101
4101 4102
4103 4104
4104 4105
4107 4108
4107 4109
4109 4110
4110 4111
4114 4115
4114 4116
4116 4117
4118 4127
4119 4120
4121 4122
4121 4137
4121 4138
4121 4140
4122 4124
4122 4128
4124 4126
4125 4177
4127 4139
4127 4146
4127 4181
4127 4187
4127 4188
4127 4190
4128 4129
4130 4131
4130 4132
4130 4172
4133 4134
4133 4139
4133 4142
4135 4136
4139 4155
4142 4143
4143 4144
4144 4145
4147 4148
4147 4164
4148 4149
4149 4150
4149 4151
4149 4156
4151 4152
4152 4153
4153 4154
4155 4172
4156 4157
4157 4158
4158 4159
4158 4162
4159 4160
4160 4161
4164 4165
4166 4167
4166 4169
4167 4168
4170 4171
4170 4173
4172 4177
4174 4175
4175 4176
4175 4178
4178 4179
4179 4180
4179 4189
4181 4182
4181 4185
4182 4183
4183 4184
4185 4186
