# Cactaceae clade from the Open Tree of Life; 2641 nodes, 2640 edges; canonical sorted order
0 4
1 4
2 4
3 4
4 5
4 6
4 2571
7 8
8 9
8 2459
9 10
11 12
12 1752
13 1757
14 26
15 16
15 17
15 26
18 19
18 20
18 26
21 26
22 23
22 24
22 25
22 26
26 27
26 30
26 31
26 2451
27 28
27 29
32 36
33 36
34 36
35 36
36 37
36 38
36 39
36 2574
40 45
41 45
42 45
43 45
44 45
45 46
45 47
45 2611
48 50
49 50
50 51
50 52
50 2615
53 60
54 60
55 60
56 60
57 60
58 60
59 60
60 61
60 2461
62 63
63 64
63 65
63 2585
66 69
67 69
68 69
69 70
69 71
69 72
69 73
69 74
69 2489
75 82
76 82
77 82
78 82
79 82
80 82
81 82
82 83
82 84
82 2615
85 86
86 87
86 2464
88 89
89 2607
90 92
91 1815
92 93
93 114
94 95
95 2615
96 98
97 98
98 99
98 100
98 2601
101 102
102 103
102 2534
104 111
105 111
106 111
107 111
108 111
109 111
110 111
111 112
111 2363
113 223
113 840
113 1092
113 1522
113 1766
113 1876
113 1879
113 1884
113 1888
113 1912
113 2360
113 2546
114 365
114 590
114 817
114 919
114 1764
114 1843
114 2019
114 2558
114 2593
115 116
115 1206
117 118
118 2477
119 120
119 2572
121 124
122 124
123 124
124 125
124 126
124 2608
127 128
127 129
127 130
127 131
127 132
127 133
127 134
127 135
127 136
127 137
127 138
127 139
127 142
127 143
127 144
127 145
127 146
127 147
127 149
127 150
127 151
127 152
127 153
127 158
127 159
127 160
127 161
127 162
127 163
127 164
127 165
127 166
127 167
127 168
127 169
127 170
127 171
127 172
127 173
127 174
127 2599
127 2616
139 140
139 141
148 2616
154 155
154 156
154 157
154 2616
175 179
176 179
177 179
178 179
179 180
179 2609
181 2620
182 2620
183 2620
184 2620
185 2620
186 2620
187 2620
188 2632
189 2620
190 2620
191 2632
192 2620
193 2620
194 2620
195 2620
196 2620
197 2620
198 2620
199 2620
200 2620
201 2620
202 2620
203 2620
204 2620
205 2620
206 2620
207 2620
208 2620
209 2620
210 2625
211 2620
212 2620
213 2620
214 2620
215 2620
216 2620
217 2620
218 2620
219 2620
220 2634
221 2620
222 223
224 230
225 230
226 230
227 230
228 230
229 230
230 231
230 232
230 2612
233 237
234 237
235 237
236 237
237 238
237 239
237 2502
240 248
241 283
242 283
243 283
244 283
245 2432
246 283
247 283
248 249
248 250
248 283
251 283
252 253
252 2432
254 283
255 283
256 283
257 283
258 283
259 283
260 283
261 283
262 283
263 283
264 283
265 266
265 267
265 268
265 269
265 270
265 283
271 283
272 283
273 283
274 2431
275 283
276 283
277 283
278 283
279 280
279 283
281 283
282 283
283 284
283 285
283 287
283 2431
283 2432
283 2596
286 2431
288 2581
289 296
290 296
291 296
292 2581
293 296
294 296
295 2581
296 297
296 298
296 299
296 300
296 301
296 302
296 2369
296 2581
303 304
303 1752
305 2445
306 2445
307 2445
308 2445
309 2445
310 2445
311 2445
312 2445
313 2445
314 2445
315 2445
316 2445
317 2445
318 2445
319 2445
320 2445
321 2445
322 2445
323 2449
324 2445
325 2445
326 2445
327 2445
328 2445
329 2445
330 2445
331 2445
332 2445
333 2445
334 2457
335 2445
336 2445
337 2445
338 2445
339 2445
340 2445
341 2445
342 2445
343 2445
344 2445
345 2445
346 2445
347 2445
348 2445
349 2445
350 2445
351 2445
352 2445
353 354
353 2445
355 2445
356 2456
357 2445
358 2445
359 2445
360 2445
361 2445
362 2445
363 2445
364 365
366 367
366 368
366 369
366 370
366 376
371 376
372 376
373 376
374 376
375 376
376 377
376 378
376 379
376 382
376 383
376 384
376 2486
379 380
379 381
385 414
386 2496
387 414
388 414
389 414
390 414
391 414
392 414
393 414
394 414
395 414
396 414
397 414
398 414
399 414
400 2495
401 414
402 414
403 414
404 414
405 2497
406 414
407 414
408 414
409 414
410 414
411 414
412 414
413 414
414 415
414 416
414 418
414 419
414 420
414 421
414 423
414 424
414 425
414 426
414 427
414 428
414 429
414 430
414 431
414 2493
414 2494
417 2494
422 2497
432 434
433 434
434 435
434 2466
436 437
437 438
437 2575
439 440
439 2636
441 450
442 450
443 450
444 450
445 450
446 450
447 450
448 450
449 450
450 451
450 452
450 453
450 454
450 485
450 493
450 494
450 495
450 498
450 2613
454 455
454 456
457 458
457 2555
459 2560
460 2555
461 2552
462 2555
463 464
463 2555
465 2557
466 2554
467 2552
468 2555
469 2552
470 2555
471 2555
472 2554
473 2552
474 475
474 476
474 2556
477 2555
478 2557
479 480
479 481
479 482
479 483
479 484
479 2556
486 2462
487 2462
488 2462
489 490
489 491
489 2462
492 2462
496 2462
497 2462
499 2462
500 2463
501 502
501 503
501 2462
504 2462
505 547
506 547
507 547
508 547
509 547
510 547
511 547
512 547
513 547
514 547
515 547
516 547
517 518
517 547
519 547
520 2365
521 547
522 547
523 547
524 547
525 526
525 2365
527 547
528 547
529 530
529 547
531 547
532 547
533 547
534 547
535 547
536 547
537 547
538 547
539 547
540 547
541 547
542 547
543 547
544 547
545 547
546 547
547 548
547 549
547 550
547 551
547 552
547 554
547 555
547 556
547 557
547 558
547 559
547 560
547 562
547 563
547 564
547 565
547 566
547 567
547 568
547 569
547 570
547 571
547 572
547 573
547 574
547 575
547 577
547 578
547 579
547 581
547 582
547 585
547 586
547 587
547 588
547 2365
547 2469
552 553
560 561
575 576
579 580
582 583
582 584
589 590
591 2590
592 2590
593 2590
594 2590
595 596
595 2590
597 598
597 599
597 600
597 2590
598 601
602 2590
603 2590
604 2590
605 2590
606 2590
607 2590
608 609
608 610
608 2590
611 2639
612 2590
613 2590
614 2590
615 2590
616 2590
617 2590
618 2590
619 2590
620 2590
621 2590
622 2590
623 2590
624 2639
625 626
625 627
625 2592
628 2590
629 2590
630 2590
631 2590
632 2590
633 2590
634 2590
635 2590
636 2590
637 2590
638 2590
639 2590
640 2590
641 2590
642 2590
643 2590
644 2590
645 646
645 2590
647 2590
648 2590
649 2590
650 2590
651 2590
652 2590
653 2590
654 2590
655 2638
656 2590
657 2590
658 2590
659 2590
660 2640
661 2590
662 2590
663 2637
664 2590
665 2590
666 2590
667 2590
668 2590
669 2590
670 2590
671 2590
672 2590
673 2590
674 2590
675 2590
676 2590
677 2590
678 679
678 2590
680 2590
681 2590
682 2590
683 2590
684 2590
685 2590
686 2640
687 2590
688 2590
689 2590
690 2590
691 692
691 2590
693 694
693 2590
695 2590
696 2590
697 2590
698 2590
699 700
699 701
699 2590
702 2590
703 2590
704 2590
705 2590
706 2590
707 2590
708 2590
709 2590
710 713
710 714
710 719
710 724
710 725
710 2551
710 2563
711 2567
712 2568
715 716
715 717
715 718
715 2569
720 2566
721 722
721 2569
723 2566
726 727
726 2564
728 733
729 733
730 733
731 733
732 733
733 734
733 735
733 736
733 737
733 738
733 2448
739 781
740 781
741 742
741 781
743 2370
744 781
745 781
746 781
747 748
747 781
749 781
750 781
751 752
751 781
753 754
753 755
753 756
753 781
757 781
758 781
759 781
760 781
761 762
761 781
763 781
764 765
764 2370
766 781
767 781
768 781
769 781
770 771
770 781
772 781
773 774
773 775
773 776
773 777
773 2368
778 781
779 780
779 781
781 782
781 783
781 784
781 785
781 789
781 790
781 791
781 799
781 803
781 804
781 805
781 806
781 807
781 2367
781 2368
781 2370
785 786
785 787
785 788
792 2368
793 794
793 795
793 796
793 2368
795 797
795 798
799 800
799 801
799 802
808 817
809 817
810 817
811 817
812 817
813 817
814 817
815 816
815 817
817 818
817 819
817 820
817 821
817 822
817 823
824 825
825 2576
826 2627
827 2620
828 2620
829 2633
830 2620
831 2628
832 2620
833 2620
834 2620
835 2620
836 2620
837 2620
838 2620
839 840
841 842
842 2602
843 2361
844 845
844 2585
846 2361
847 848
847 2583
849 2361
850 2361
851 2583
852 2361
853 2361
854 855
855 856
855 857
855 2614
858 2438
859 2438
860 2438
861 2438
862 2438
863 2438
864 2438
865 2438
866 2438
867 2438
868 2438
869 2438
870 2438
871 2438
872 2439
873 2438
874 2438
875 2438
876 2438
877 2438
878 2446
879 2438
880 2438
881 2438
882 2438
883 2438
884 2438
885 2438
886 2438
887 2438
888 2438
889 2438
890 2438
891 2443
892 2438
893 2438
894 2441
895 910
896 910
897 910
898 910
899 910
900 910
901 910
902 910
903 910
904 910
905 910
906 910
907 908
907 910
909 910
910 911
910 912
910 913
910 914
910 915
910 2374
916 917
917 2464
918 919
920 931
921 931
922 931
923 2499
924 931
925 931
926 931
927 931
928 931
929 2499
930 931
931 932
931 933
931 934
931 935
931 936
931 2493
931 2499
937 1028
938 1028
939 1028
940 1028
941 1028
942 943
942 1028
944 1028
945 946
945 947
945 1028
948 949
948 950
948 1028
951 1028
952 1028
953 1028
954 1028
955 1028
956 1028
957 1028
958 1028
959 960
959 961
959 962
959 1028
960 963
964 965
964 1028
966 1028
967 1028
968 1028
969 1028
970 1028
971 1028
972 1028
973 1028
974 1028
975 1028
976 1028
977 978
977 1028
979 1028
980 981
980 1028
982 983
982 1028
984 1028
985 986
985 1028
987 988
987 989
987 1028
990 991
990 992
990 1028
993 1028
994 996
995 996
996 1028
997 1028
998 1028
999 1028
1000 1001
1000 1002
1000 1028
1003 1004
1003 1005
1003 1028
1006 1007
1006 1028
1008 1009
1008 1028
1010 1028
1011 1028
1012 1013
1012 1014
1012 1028
1015 1028
1016 1017
1016 1018
1016 1028
1017 1019
1020 1028
1021 1028
1022 1028
1023 1028
1024 1028
1025 1026
1025 1028
1027 1028
1028 1029
1028 1030
1028 1031
1028 1034
1028 1039
1028 1040
1028 1041
1028 1042
1028 1043
1028 1044
1028 1045
1028 1046
1028 1047
1028 1048
1028 1052
1028 1053
1028 1058
1028 1061
1028 1062
1028 1064
1028 1066
1028 1067
1028 1068
1028 1069
1028 1070
1028 1072
1028 1073
1028 1074
1028 2592
1031 1032
1031 1033
1034 1035
1034 1036
1034 1037
1036 1038
1037 1075
1037 1076
1048 1049
1048 1050
1048 1051
1053 1054
1053 1055
1053 1056
1055 1057
1058 1059
1058 1060
1062 1063
1064 1065
1070 1071
1077 2615
1078 2471
1079 2615
1080 2615
1081 2615
1082 2615
1083 2615
1084 2622
1085 2615
1086 2615
1087 2615
1088 2615
1089 2615
1090 2615
1091 1092
1093 1094
1093 1095
1093 1096
1093 1097
1093 1098
1093 1099
1093 1100
1093 1101
1093 1102
1093 1103
1093 1104
1093 1105
1093 1106
1093 1107
1093 1108
1093 1109
1093 1110
1093 1111
1093 1112
1093 1113
1093 1114
1093 1115
1093 1116
1093 1117
1093 2617
1118 1121
1119 2423
1120 1121
1121 2383
1121 2423
1122 1123
1122 2423
1124 1134
1125 2485
1126 2485
1127 1134
1128 2498
1129 1134
1130 2498
1131 2498
1132 2485
1133 2498
1134 1135
1134 1136
1134 1137
1134 1141
1134 1142
1134 2478
1134 2485
1134 2498
1138 2498
1139 2485
1140 2488
1143 2488
1144 1145
1144 2615
1146 1147
1147 1148
1147 2628
1149 1151
1150 1151
1151 2417
1152 1153
1153 2614
1154 2380
1155 1157
1156 1157
1157 2380
1158 2381
1159 1161
1160 1161
1161 1162
1162 1163
1162 2377
1162 2379
1164 2381
1165 1170
1166 1170
1167 1170
1168 1170
1169 1170
1170 1171
1170 1172
1170 1173
1170 1174
1170 1175
1170 1176
1170 2575
1177 1178
1177 2443
1179 2360
1180 2537
1181 2535
1182 2360
1183 2540
1184 2540
1185 2538
1186 2539
1187 2590
1188 1190
1189 1190
1190 1191
1190 2595
1191 1192
1191 1193
1194 1195
1194 1198
1194 1199
1194 2437
1195 1196
1195 1197
1199 1200
1199 1201
1202 1205
1203 1205
1204 1205
1205 1206
1206 2626
1207 1208
1208 1209
1208 1210
1208 1211
1211 2558
1212 1227
1213 1227
1214 1227
1215 1227
1216 1227
1217 1227
1218 1227
1219 1227
1220 1227
1221 1227
1222 1227
1223 1227
1224 1227
1225 1227
1226 1227
1227 1228
1227 1229
1227 1230
1227 1752
1231 2593
1232 2593
1233 2593
1234 2593
1235 2593
1236 2593
1237 2593
1238 2593
1239 2593
1240 2593
1241 2593
1242 2593
1243 2593
1244 2593
1245 2593
1246 2593
1247 2593
1248 2593
1249 2593
1250 2593
1251 2593
1252 2593
1253 2593
1254 2593
1255 2593
1256 2593
1257 2593
1258 2458
1259 2593
1260 2593
1261 2593
1262 2593
1263 2593
1264 2593
1265 2593
1266 2593
1267 2593
1268 2593
1269 1270
1269 2593
1271 2593
1272 2593
1273 2593
1274 2593
1275 2593
1276 2593
1277 2593
1278 2593
1279 2593
1280 2593
1281 2593
1282 2593
1283 2593
1284 2593
1285 2593
1286 2593
1287 2593
1288 2593
1289 2593
1290 2593
1291 2593
1292 2593
1293 2593
1294 2593
1295 2593
1296 2593
1297 2593
1298 2593
1299 2593
1300 2593
1301 2593
1302 2593
1303 2593
1304 2449
1305 2593
1306 2593
1307 2593
1308 2593
1309 2593
1310 2593
1311 2593
1312 2593
1313 2593
1314 2593
1315 2593
1316 2593
1317 2593
1318 2593
1319 2593
1320 2593
1321 2593
1322 2593
1323 2593
1324 2593
1325 2593
1326 2593
1327 2593
1328 2593
1329 2593
1330 2593
1331 2593
1332 2593
1333 2593
1334 2430
1335 2593
1336 2593
1337 2593
1338 2593
1339 2593
1340 2454
1341 2593
1342 2593
1343 2593
1344 2593
1345 2593
1346 2593
1347 2593
1348 1349
1348 2593
1350 2593
1351 2593
1352 2593
1353 2593
1354 2593
1355 2593
1356 2593
1357 2593
1358 2593
1359 2593
1360 2593
1361 2593
1362 2593
1363 2593
1364 2593
1365 2593
1366 2593
1367 2593
1368 2593
1369 2593
1370 2593
1371 2593
1372 2593
1373 2593
1374 2593
1375 2593
1376 2593
1377 1378
1377 2593
1379 2593
1380 2593
1381 2593
1382 2593
1383 2593
1384 2430
1385 2593
1386 2593
1387 1388
1387 2593
1389 2593
1390 2593
1391 2593
1392 2593
1393 2593
1394 2593
1395 2593
1396 2593
1397 2593
1398 2593
1399 2593
1400 2593
1401 2593
1402 2593
1403 2593
1404 2593
1405 2593
1406 2593
1407 2593
1408 2593
1409 2593
1410 2593
1411 2593
1412 2593
1413 2593
1414 2593
1415 2593
1416 2593
1417 2593
1418 2593
1419 2593
1420 1421
1420 2593
1422 2593
1423 2593
1424 2593
1425 1426
1425 2593
1427 2593
1428 2593
1429 1430
1429 2593
1431 2593
1432 2593
1433 2593
1434 2593
1435 2593
1436 2593
1437 2593
1438 2593
1439 2593
1440 2593
1441 2593
1442 2624
1443 2624
1444 2624
1445 1446
1445 2624
1447 2624
1448 2624
1449 2624
1450 2625
1451 2624
1452 2624
1453 2624
1454 2624
1455 2624
1456 2624
1457 2624
1458 1489
1459 1489
1460 1489
1461 1489
1462 1489
1463 1489
1464 1489
1465 1489
1466 1489
1467 1489
1468 1489
1469 1489
1470 1489
1471 1489
1472 1489
1473 1489
1474 1489
1475 1489
1476 1489
1477 1489
1478 1489
1479 1489
1480 1489
1481 1489
1482 1489
1483 1489
1484 1489
1485 1489
1486 1489
1487 1489
1488 1489
1489 1490
1489 1491
1489 1492
1489 1493
1489 1494
1489 1495
1489 1496
1489 1497
1489 1498
1489 1499
1489 1500
1489 1501
1489 1502
1489 2613
1503 2615
1504 2615
1505 2615
1506 2633
1507 2615
1508 2615
1509 2603
1510 2467
1511 2615
1512 2615
1513 2492
1514 1515
1514 1516
1514 2615
1517 1518
1518 2532
1519 1520
1519 2574
1521 1522
1523 2525
1524 2525
1525 2525
1526 2525
1527 2577
1528 2525
1529 1535
1530 1535
1531 1535
1532 1535
1533 1535
1534 1535
1535 1536
1535 1537
1535 1538
1535 1539
1535 2608
1540 1542
1541 1542
1542 2309
1542 2458
1543 1544
1543 1547
1545 1547
1546 1547
1547 2587
1548 1549
1549 1550
1549 2373
1551 1552
1552 1752
1553 1815
1554 1555
1554 2467
1556 1557
1557 2463
1558 1691
1559 1691
1560 1691
1561 1691
1562 1691
1563 1691
1564 1691
1565 1691
1566 1691
1567 1691
1568 1691
1569 1691
1570 1691
1571 1691
1572 1691
1573 1691
1574 1691
1575 1691
1576 1691
1577 1691
1578 1691
1579 1691
1580 1691
1581 2517
1582 1691
1583 1691
1584 1691
1585 1691
1586 1691
1587 1691
1588 1691
1589 1691
1590 1691
1591 1691
1592 1691
1593 1691
1594 1691
1595 1691
1596 1691
1597 2511
1598 1691
1599 1691
1600 1691
1601 1691
1602 1691
1603 1691
1604 1691
1605 1691
1606 1691
1607 1691
1608 2519
1609 1691
1610 1691
1611 1691
1612 1691
1613 2513
1614 1691
1615 1691
1616 1691
1617 1691
1618 1619
1618 2524
1620 1691
1621 1691
1622 1691
1623 1691
1624 1691
1625 1691
1626 1691
1627 1628
1627 1629
1627 1630
1627 2510
1631 1691
1632 2520
1633 2514
1634 1691
1635 1691
1636 1691
1637 1691
1638 1691
1639 1691
1640 1691
1641 1691
1642 1691
1643 1691
1644 1691
1645 1691
1646 1691
1647 1648
1648 1649
1648 2512
1650 1691
1651 2521
1652 1691
1653 1691
1654 1691
1655 1691
1656 2514
1657 1691
1658 1691
1659 1691
1660 1691
1661 1691
1662 1691
1663 2520
1664 1691
1665 1691
1666 1691
1667 1691
1668 1691
1669 2512
1670 1691
1671 1691
1672 1691
1673 1691
1674 1691
1675 1691
1676 1691
1677 1691
1678 1691
1679 1680
1679 1691
1681 1691
1682 1691
1683 1691
1684 1691
1685 1691
1686 1691
1687 1691
1688 1691
1689 1691
1690 2507
1691 1692
1691 1693
1691 1694
1691 1695
1691 1696
1691 1699
1691 1700
1691 1701
1691 1702
1691 1704
1691 1706
1691 1707
1691 1708
1691 1709
1691 1711
1691 1712
1691 1713
1691 1714
1691 1715
1691 1716
1691 1717
1691 1718
1691 1719
1691 1720
1691 1721
1691 1722
1691 1723
1691 1724
1691 1725
1691 1726
1691 1727
1691 1728
1691 1729
1691 1730
1691 1733
1691 1734
1691 1735
1691 1736
1691 1737
1691 1738
1691 1739
1691 1740
1691 1741
1691 1742
1691 1743
1691 1744
1691 1745
1691 1746
1691 1747
1691 1749
1691 1750
1691 1751
1691 2504
1691 2505
1691 2524
1697 2508
1698 2523
1703 2518
1705 2522
1710 2524
1731 2523
1732 2509
1748 2517
1752 2134
1752 2468
1752 2481
1753 1757
1754 1757
1755 1757
1756 1757
1757 1758
1757 1759
1757 2618
1760 1761
1761 1762
1761 2623
1763 1764
1765 1766
1767 2452
1768 2452
1769 2452
1770 2452
1771 2606
1772 2452
1773 2452
1774 2606
1775 1815
1776 1815
1777 1815
1778 1815
1779 1815
1780 1815
1781 1815
1782 1815
1783 1815
1784 1815
1785 1815
1786 1815
1787 1815
1788 1815
1789 1815
1790 1815
1791 1815
1792 1815
1793 1815
1794 1815
1795 2371
1796 1815
1797 1815
1798 1815
1799 1815
1800 1815
1801 1815
1802 1815
1803 1815
1804 1815
1805 1815
1806 1815
1807 1815
1808 1815
1809 1815
1810 1815
1811 1815
1812 1815
1813 1815
1814 1815
1815 1816
1815 1817
1815 1818
1815 1819
1815 1820
1815 1821
1815 1822
1815 1823
1815 1824
1815 1825
1815 1827
1815 1828
1815 1829
1815 1830
1815 1831
1815 1832
1815 1833
1815 1834
1815 1835
1815 1836
1815 1837
1815 1838
1815 2367
1815 2371
1826 2371
1839 1843
1840 1843
1841 1843
1842 1843
1843 1844
1843 1845
1843 1846
1843 1847
1843 1848
1849 1850
1850 1851
1850 2457
1852 1869
1853 1869
1854 1869
1855 1869
1856 1869
1857 1869
1858 1859
1858 1869
1859 1860
1861 1869
1862 1869
1863 1869
1864 1869
1865 1869
1866 1869
1867 1869
1868 1869
1869 1870
1869 1871
1869 1872
1869 1873
1869 1874
1869 1875
1869 2571
1877 2546
1878 2545
1880 1881
1880 1882
1880 2542
1881 1883
1884 1885
1884 1886
1885 1887
1889 2544
1890 2544
1891 2545
1892 2546
1893 2491
1894 2501
1895 2491
1896 2491
1897 2491
1898 2491
1899 2501
1900 2491
1901 1908
1902 1908
1903 1908
1904 2584
1905 1908
1906 1907
1906 2584
1908 1909
1908 2582
1908 2584
1910 1912
1911 1912
1913 1952
1914 1952
1915 1952
1916 1952
1917 1952
1918 1919
1918 1952
1920 1952
1921 1952
1922 1923
1922 1952
1924 1925
1924 1952
1926 1952
1927 1928
1927 1952
1929 1952
1930 1952
1931 1952
1932 1952
1933 1952
1934 1952
1935 1936
1935 1952
1937 1952
1938 1939
1938 1952
1940 1952
1941 1952
1942 1952
1943 1952
1944 1952
1945 1952
1946 1952
1947 1952
1948 1952
1949 1952
1950 1952
1951 1952
1952 1953
1952 1955
1952 1956
1952 1958
1952 1959
1952 1960
1952 1961
1952 1962
1952 1963
1952 1964
1952 1965
1952 1966
1952 1967
1952 1968
1952 1969
1952 1970
1952 1971
1952 2605
1953 1954
1956 1957
1972 1974
1973 1974
1974 2541
1975 1976
1976 1977
1976 2597
1978 2578
1979 2579
1980 1981
1981 2615
1982 2560
1983 2562
1984 1985
1984 1986
1984 1987
1984 2470
1988 2470
1989 2562
1990 1991
1990 2470
1992 2001
1993 2001
1994 2001
1995 2001
1996 2001
1997 2001
1998 2001
1999 2001
2000 2001
2001 2002
2001 2003
2001 2004
2001 2483
2005 2006
2005 2007
2007 2615
2008 2009
2009 2489
2010 2011
2010 2013
2012 2013
2013 2615
2014 2015
2015 2016
2015 2017
2015 2490
2018 2019
2020 2021
2021 2022
2021 2615
2023 2588
2024 2588
2025 2588
2026 2588
2027 2588
2028 2588
2029 2588
2030 2588
2031 2588
2032 2588
2033 2588
2034 2588
2035 2588
2036 2588
2037 2588
2038 2588
2039 2588
2040 2588
2041 2588
2042 2588
2043 2588
2044 2045
2044 2046
2044 2364
2047 2588
2048 2588
2049 2588
2050 2588
2051 2588
2052 2588
2053 2588
2054 2588
2055 2588
2056 2588
2057 2058
2057 2588
2059 2588
2060 2061
2061 2615
2062 2139
2062 2140
2062 2375
2062 2377
2062 2382
2063 2117
2064 2415
2065 2067
2066 2067
2067 2421
2068 2069
2068 2409
2070 2399
2071 2406
2072 2408
2073 2402
2074 2408
2075 2407
2076 2400
2077 2117
2078 2117
2079 2414
2080 2117
2081 2398
2082 2412
2083 2117
2084 2117
2085 2117
2086 2088
2087 2088
2088 2410
2089 2392
2090 2117
2091 2391
2092 2419
2093 2420
2094 2394
2095 2395
2096 2117
2097 2419
2098 2419
2099 2420
2100 2418
2101 2419
2102 2420
2103 2395
2104 2396
2105 2422
2106 2411
2107 2409
2108 2401
2109 2112
2110 2112
2111 2112
2112 2394
2113 2392
2114 2391
2115 2389
2116 2117
2117 2125
2117 2132
2117 2141
2117 2150
2117 2383
2117 2384
2117 2416
2118 2397
2119 2120
2119 2385
2121 2409
2122 2415
2123 2414
2124 2422
2126 2399
2127 2405
2128 2404
2129 2404
2130 2405
2131 2405
2133 2419
2134 2135
2136 2533
2137 2138
2138 2634
2142 2378
2143 2427
2144 2145
2144 2146
2144 2425
2147 2429
2148 2429
2149 2428
2151 2378
2152 2426
2153 2428
2154 2165
2155 2165
2156 2157
2156 2165
2158 2165
2159 2165
2160 2165
2161 2165
2162 2165
2163 2165
2164 2165
2165 2166
2165 2167
2165 2168
2165 2169
2165 2170
2165 2171
2165 2172
2165 2174
2165 2175
2165 2176
2165 2178
2165 2434
2165 2465
2173 2465
2177 2465
2179 2473
2180 2473
2181 2480
2182 2531
2183 2473
2184 2473
2185 2473
2186 2473
2187 2188
2187 2189
2187 2190
2187 2527
2191 2480
2192 2476
2193 2473
2194 2473
2195 2530
2196 2473
2197 2526
2198 2479
2199 2531
2200 2527
2201 2206
2202 2206
2203 2206
2204 2206
2205 2206
2206 2207
2206 2442
2208 2487
2209 2606
2210 2561
2211 2487
2212 2487
2213 2525
2214 2487
2215 2500
2216 2487
2217 2487
2218 2580
2219 2487
2220 2487
2221 2487
2222 2487
2223 2570
2224 2487
2225 2580
2226 2565
2227 2487
2228 2500
2229 2541
2230 2570
2231 2559
2232 2487
2233 2235
2234 2235
2235 2611
2236 2237
2236 2598
2238 2239
2239 2453
2240 2241
2241 2242
2241 2579
2242 2243
2244 2245
2245 2615
2246 2249
2247 2249
2248 2249
2249 2250
2249 2251
2249 2252
2249 2253
2249 2534
2254 2266
2255 2266
2256 2257
2256 2258
2256 2266
2259 2266
2260 2266
2261 2266
2262 2266
2263 2266
2264 2266
2265 2266
2266 2267
2266 2268
2266 2269
2266 2270
2266 2271
2266 2272
2266 2484
2272 2273
2272 2274
2275 2286
2276 2286
2277 2286
2278 2286
2279 2286
2280 2286
2281 2286
2282 2286
2283 2286
2284 2286
2285 2286
2286 2287
2286 2288
2286 2440
2289 2290
2290 2291
2290 2596
2292 2297
2293 2297
2294 2297
2295 2297
2296 2297
2297 2298
2297 2533
2299 2444
2300 2444
2301 2453
2302 2444
2303 2444
2304 2444
2305 2444
2306 2444
2307 2459
2308 2444
2310 2444
2311 2444
2312 2444
2313 2453
2314 2444
2315 2444
2316 2451
2317 2444
2318 2320
2319 2320
2320 2321
2320 2615
2321 2322
2323 2328
2324 2328
2325 2328
2326 2328
2327 2328
2328 2329
2328 2330
2328 2331
2328 2615
2332 2473
2333 2548
2334 2335
2334 2528
2336 2549
2337 2549
2338 2479
2339 2550
2340 2341
2340 2550
2342 2351
2343 2351
2344 2351
2345 2351
2346 2351
2347 2351
2348 2351
2349 2351
2350 2351
2351 2352
2351 2353
2351 2354
2351 2355
2351 2364
2356 2357
2357 2373
2358 2359
2359 2631
2360 2468
2360 2535
2361 2362
2361 2585
2361 2626
2362 2369
2362 2582
2363 2364
2363 2589
2366 2367
2366 2373
2366 2586
2369 2372
2372 2376
2372 2578
2374 2375
2374 2610
2375 2430
2376 2417
2376 2572
2377 2378
2379 2380
2379 2381
2382 2383
2382 2424
2384 2385
2384 2410
2385 2386
2386 2387
2386 2409
2387 2388
2387 2400
2388 2389
2388 2396
2389 2390
2389 2393
2390 2391
2390 2392
2393 2394
2393 2395
2396 2397
2397 2398
2398 2399
2400 2401
2401 2402
2402 2403
2403 2404
2403 2406
2404 2405
2406 2407
2407 2408
2410 2411
2411 2412
2412 2413
2413 2414
2413 2415
2416 2418
2416 2421
2417 2433
2418 2419
2418 2420
2421 2422
2424 2425
2424 2429
2425 2426
2426 2427
2427 2428
2433 2452
2433 2470
2434 2435
2434 2593
2435 2436
2435 2464
2436 2437
2436 2461
2437 2438
2438 2439
2438 2444
2439 2440
2440 2441
2441 2442
2442 2443
2444 2445
2444 2459
2445 2446
2445 2454
2446 2447
2447 2448
2447 2450
2448 2449
2450 2451
2450 2453
2452 2460
2454 2455
2455 2456
2455 2458
2456 2457
2460 2466
2460 2467
2461 2462
2462 2463
2466 2469
2468 2558
2469 2477
2470 2471
2470 2571
2471 2472
2472 2473
2472 2551
2473 2474
2473 2547
2474 2475
2474 2528
2475 2476
2475 2526
2476 2478
2477 2487
2478 2479
2479 2480
2481 2482
2481 2502
2482 2483
2482 2490
2483 2484
2484 2486
2485 2488
2486 2489
2487 2500
2487 2594
2490 2491
2491 2492
2492 2493
2492 2501
2494 2495
2495 2496
2496 2497
2500 2525
2502 2503
2503 2504
2503 2534
2504 2532
2505 2506
2505 2515
2506 2507
2506 2513
2507 2508
2508 2509
2509 2510
2510 2511
2511 2512
2513 2514
2515 2516
2515 2521
2516 2517
2516 2518
2518 2519
2519 2520
2521 2522
2522 2523
2525 2529
2526 2527
2528 2530
2529 2541
2529 2576
2530 2531
2532 2533
2535 2536
2536 2537
2536 2542
2537 2538
2538 2539
2539 2540
2541 2559
2542 2543
2543 2544
2543 2545
2547 2548
2547 2550
2548 2549
2551 2552
2552 2553
2552 2560
2553 2554
2553 2555
2555 2556
2556 2557
2559 2561
2560 2562
2561 2565
2563 2564
2563 2567
2564 2566
2565 2570
2567 2568
2568 2569
2572 2573
2573 2574
2573 2575
2576 2577
2577 2580
2578 2579
2582 2583
2586 2587
2586 2615
2587 2588
2588 2589
2589 2590
2590 2591
2590 2617
2591 2592
2591 2597
2593 2596
2594 2595
2594 2607
2595 2606
2596 2610
2597 2598
2598 2599
2599 2600
2600 2601
2600 2614
2601 2602
2602 2603
2603 2604
2604 2605
2604 2612
2605 2609
2607 2608
2609 2611
2610 2615
2612 2613
2615 2626
2617 2618
2618 2619
2619 2620
2619 2635
2620 2621
2620 2629
2621 2622
2621 2627
2622 2623
2623 2624
2624 2625
2627 2628
2629 2630
2629 2634
2630 2631
2630 2633
2631 2632
2635 2636
2635 2640
2636 2637
2637 2638
2638 2639
