# Carnivora clade from the Open Tree of Life; 1252 nodes, 1251 edges; canonical sorted order
0 2
0 1005
1 2
3 268
4 10
5 268
6 152
7 1169
8 10
9 1170
10 1154
10 1168
11 1169
12 19
12 1104
13 14
13 15
15 878
16 17
16 19
18 19
20 1144
21 1093
22 1137
23 1137
24 1145
25 1185
26 810
26 1184
26 1185
27 28
28 30
29 30
30 31
30 978
32 1082
33 1081
34 1082
35 1083
36 1084
37 38
38 39
38 1077
40 1084
41 1083
42 43
43 44
43 972
45 46
46 514
47 48
48 1109
49 50
49 1228
51 1038
52 60
53 54
54 1037
55 57
56 57
57 1038
58 59
59 60
60 1035
60 1037
61 62
62 63
62 1034
64 65
64 68
66 1223
67 1223
68 69
68 1221
68 1223
70 1165
71 72
72 1160
72 1161
73 1162
74 1163
75 1197
76 77
76 1187
78 79
78 661
80 81
80 795
80 800
80 808
80 1086
81 594
81 961
81 1047
82 1116
83 1094
84 1094
85 1100
86 1094
87 1101
88 1106
89 1200
90 1094
91 1107
92 1094
93 1094
94 1094
95 264
96 1094
97 1101
98 1094
99 1105
100 1094
101 1096
102 1094
103 1186
104 261
105 1094
106 1094
107 1094
108 1094
109 1094
110 1094
111 1106
112 1182
113 1107
114 130
115 130
116 130
117 130
118 130
119 130
120 130
121 130
122 130
123 130
124 130
125 130
126 130
127 130
128 130
129 130
130 131
130 132
130 133
130 1100
134 135
135 1116
136 1094
137 1094
138 1094
139 1094
140 1094
141 1094
142 1166
143 1094
144 1094
145 1094
146 730
147 1094
148 1092
149 150
150 1016
151 543
151 961
152 1158
152 1167
153 1167
154 155
155 156
155 1017
157 158
158 159
158 1094
160 161
160 975
162 163
163 1108
164 165
165 968
166 181
167 181
168 181
169 181
170 1042
171 181
172 181
173 1043
174 181
175 177
176 177
177 1042
178 181
179 181
180 181
181 182
181 183
181 184
181 185
181 187
181 1039
181 1042
181 1043
186 1043
188 1176
189 190
190 1147
190 1176
191 192
191 193
191 1236
194 198
195 196
196 198
197 1211
198 1208
198 1211
199 1211
200 201
201 271
202 203
203 205
204 205
205 206
205 207
205 1102
208 1180
209 1180
210 1179
210 1180
210 1181
211 1175
212 213
213 1171
213 1173
214 1174
215 1175
216 218
217 218
218 219
218 220
218 1222
221 542
222 1179
223 730
224 226
225 1142
226 228
226 1191
227 1176
229 827
230 540
231 233
232 233
233 373
234 235
234 1057
236 1148
237 238
238 976
239 240
240 1209
241 244
242 244
243 244
244 245
244 1111
246 248
247 1201
248 1086
248 1201
249 1201
250 251
251 504
252 254
253 254
254 255
255 1210
256 1195
257 1194
258 847
258 1193
258 1194
259 1195
260 1166
261 1160
261 1166
262 263
263 1056
264 1095
265 267
266 267
267 1074
268 1151
269 270
270 1235
271 1205
271 1232
272 983
272 984
272 990
273 604
273 961
273 1202
274 289
275 289
276 999
277 289
278 289
279 289
280 289
281 289
282 289
283 289
284 998
285 289
286 289
287 997
288 289
289 290
289 291
289 292
289 293
289 294
289 295
289 296
289 297
289 304
289 996
289 997
298 302
299 302
300 302
301 302
302 303
302 999
305 307
306 307
307 1235
308 1143
309 311
309 1225
309 1226
309 1227
310 1227
312 1227
313 1226
314 1226
315 317
315 1024
315 1118
316 317
317 318
319 322
320 322
321 322
322 323
323 327
324 326
325 326
326 1233
327 1232
327 1233
328 1240
329 964
330 1240
331 1249
332 1240
333 1240
334 1248
335 1250
336 1240
337 1244
338 1240
339 1242
340 1240
341 1240
342 1246
343 1249
344 1248
345 1251
346 1240
347 964
348 1245
349 1241
350 352
351 352
352 1022
353 355
354 355
355 356
356 1059
357 358
358 1052
359 526
359 1117
360 367
361 367
362 367
363 367
364 367
365 367
366 367
367 368
367 369
367 370
367 371
367 372
367 1209
373 973
373 975
374 375
375 976
376 1213
377 1213
378 379
379 1215
380 1213
381 1213
382 1213
383 1216
384 1213
385 1225
386 1229
387 1213
388 1213
389 1213
390 1213
391 1216
392 1216
393 1215
394 1229
395 1213
396 397
396 1205
396 1206
396 1213
398 1188
399 795
400 404
401 404
402 404
403 404
404 405
404 1237
406 407
407 408
407 409
407 878
410 797
410 1204
410 1236
411 412
412 1210
413 414
414 1067
415 416
416 1219
417 1025
418 1025
419 1025
420 1026
421 1011
422 1011
423 1013
424 1013
425 427
426 1010
427 428
427 993
427 1009
427 1014
429 430
430 1014
431 1012
432 1014
433 434
433 435
433 1015
436 437
436 1067
438 439
439 1212
440 441
441 1068
442 445
443 1231
444 1230
445 1130
445 1230
446 1231
447 454
448 454
449 454
450 454
451 454
452 1172
453 1172
454 455
454 456
454 457
454 458
454 459
454 1136
454 1172
460 812
460 1121
460 1130
461 462
461 1145
463 1113
464 468
465 1115
466 1114
467 1114
468 470
468 1110
468 1112
468 1115
469 1113
471 1115
472 473
472 1103
474 475
474 1031
476 1006
477 479
478 1007
479 481
479 482
479 483
479 994
479 1006
480 1007
484 485
485 980
486 490
487 490
488 490
489 490
490 491
490 1032
492 1054
493 1027
494 1054
495 1044
496 497
497 498
497 1032
499 1008
500 1008
501 1008
502 503
503 1044
504 962
504 1008
505 1085
506 513
507 508
508 1085
509 511
510 511
511 513
512 513
513 514
513 1085
514 962
515 518
516 518
517 518
518 519
518 520
520 1031
521 526
522 1030
523 524
523 1029
525 1030
526 1029
527 1030
528 529
528 1048
530 600
530 1039
530 1069
531 535
532 535
533 535
534 535
535 536
535 1040
537 1196
538 846
539 1199
540 1189
540 1190
541 727
542 1150
543 927
544 859
544 1153
545 547
546 547
547 1065
548 549
549 1070
550 557
551 557
552 557
553 557
554 557
555 557
556 557
557 1212
558 559
559 1234
560 963
561 1021
562 977
563 963
564 963
565 971
566 963
567 1001
568 1021
569 963
570 1020
571 963
572 987
573 963
574 965
575 992
576 967
577 963
578 963
579 1000
580 581
581 982
582 1018
583 963
584 963
585 586
586 1001
587 963
588 989
589 1018
590 982
591 963
592 593
593 856
593 1129
593 1198
595 600
596 600
597 600
598 600
599 600
601 603
602 603
603 604
605 612
606 612
607 612
608 612
609 612
610 611
610 612
612 613
612 614
612 1036
615 617
616 617
617 1036
618 621
619 620
620 621
621 984
622 623
622 624
622 1070
625 626
626 1072
627 629
628 629
629 630
629 1019
631 1144
632 1091
633 1185
634 1183
635 1090
636 637
637 640
637 1120
638 640
639 640
640 641
640 642
643 644
643 1071
644 647
645 647
646 647
647 648
649 650
649 1068
651 652
651 1251
653 1200
654 655
654 1189
654 1197
656 1164
657 658
657 659
657 660
657 1076
661 1071
661 1072
662 1184
663 664
664 1002
665 667
666 667
667 1135
668 669
669 1139
670 1183
671 675
672 675
673 675
674 675
675 979
676 680
677 680
678 680
679 680
680 681
680 682
680 988
683 684
684 988
685 691
685 984
685 985
685 986
686 689
687 689
688 689
689 690
689 986
692 696
693 696
694 696
695 696
696 697
696 698
696 699
696 985
700 985
701 861
701 1171
702 703
702 1222
704 718
705 718
706 718
707 718
708 718
709 718
710 981
711 718
712 718
713 718
714 718
715 718
716 718
717 718
718 719
718 720
718 721
718 722
718 723
718 724
718 725
718 980
718 981
726 981
727 858
727 1187
728 729
729 1237
730 1157
731 732
732 1017
733 734
734 1193
735 1177
736 1178
737 1178
738 1058
739 1063
740 1063
741 1062
742 743
743 744
743 745
743 746
743 1062
747 1058
748 749
749 1078
750 1055
750 1056
750 1064
751 1165
752 754
753 754
754 1026
755 756
756 757
756 1239
758 1161
759 760
760 792
761 764
762 764
763 764
764 765
764 1004
766 769
767 1004
768 769
769 770
769 771
769 1002
769 1003
772 1003
773 774
773 775
773 777
773 778
775 776
778 983
779 788
780 788
781 788
782 784
783 784
784 785
784 788
786 788
787 788
788 789
788 790
788 1034
791 792
792 1033
792 1129
793 794
794 1016
796 797
798 799
798 1159
800 801
802 864
802 1155
803 804
804 1152
805 808
806 808
807 808
808 809
811 812
813 815
814 815
815 816
816 817
816 818
816 1005
819 825
820 823
821 823
822 823
823 824
823 1061
825 1060
825 1061
826 1061
827 1181
828 830
829 830
830 1220
831 833
832 833
833 1234
834 835
834 1103
836 1041
837 838
838 839
839 844
839 1040
839 1041
840 842
841 842
842 843
842 1041
845 1170
846 1192
848 849
848 1206
850 852
851 852
852 855
852 856
853 855
854 855
857 1196
860 865
862 865
863 1173
865 1156
866 1167
867 868
868 1046
869 877
870 874
871 874
872 874
873 874
874 875
874 876
874 877
877 1135
878 1045
878 1046
879 884
880 884
881 884
882 884
883 884
884 885
884 1053
886 890
887 890
888 890
889 890
890 891
890 892
890 1051
893 1049
894 1049
895 1049
896 1051
897 1049
898 899
899 1050
900 904
901 904
902 904
903 904
904 905
904 906
904 1053
907 1049
908 911
909 911
910 911
911 1216
912 919
913 919
914 970
915 919
916 970
917 919
918 919
919 920
919 968
919 969
921 969
922 923
923 966
924 966
924 1238
924 1239
925 926
925 1024
927 928
927 929
930 1131
931 1132
932 1134
933 1131
934 1093
935 1093
936 1111
937 1093
938 1093
939 940
940 1126
941 1093
942 943
942 1126
944 1093
945 1134
946 1093
947 1128
948 1093
949 1120
950 1125
951 953
952 953
953 954
953 1128
955 1093
956 1132
957 1075
958 959
959 1074
959 1075
960 1075
962 1224
963 965
963 1019
963 1121
964 1240
965 967
966 968
967 971
967 1018
969 970
971 974
972 973
972 1238
973 978
974 977
974 987
975 976
977 982
978 979
979 980
983 1202
986 988
987 989
989 992
990 991
990 1017
991 993
991 1015
992 1000
993 994
994 995
995 996
995 1005
996 1002
997 998
998 999
1000 1001
1003 1004
1006 1007
1008 1022
1009 1010
1009 1012
1010 1011
1012 1013
1015 1016
1019 1020
1020 1021
1022 1023
1023 1027
1023 1054
1024 1025
1025 1026
1027 1028
1028 1032
1028 1044
1029 1030
1031 1198
1033 1034
1033 1035
1035 1036
1037 1038
1039 1040
1045 1047
1045 1055
1046 1048
1047 1069
1048 1049
1049 1050
1049 1052
1050 1051
1052 1053
1055 1071
1056 1057
1057 1058
1058 1059
1058 1063
1059 1060
1060 1062
1064 1065
1064 1070
1065 1066
1066 1067
1066 1068
1069 1104
1072 1073
1073 1074
1073 1076
1076 1077
1077 1078
1078 1079
1079 1080
1079 1084
1080 1081
1080 1083
1081 1082
1086 1087
1087 1088
1087 1188
1088 1089
1088 1186
1089 1090
1089 1138
1090 1091
1091 1092
1092 1093
1093 1094
1093 1119
1094 1095
1094 1108
1094 1116
1095 1096
1096 1097
1097 1098
1097 1107
1098 1099
1098 1105
1099 1100
1099 1102
1100 1101
1102 1103
1104 1129
1105 1106
1108 1109
1109 1110
1110 1111
1112 1113
1112 1114
1117 1118
1117 1224
1118 1121
1119 1120
1119 1135
1120 1122
1122 1123
1122 1134
1123 1124
1123 1132
1124 1125
1124 1127
1125 1126
1127 1128
1127 1131
1130 1133
1133 1136
1133 1210
1136 1137
1137 1145
1138 1139
1138 1184
1139 1140
1140 1141
1140 1179
1141 1142
1141 1146
1142 1143
1143 1144
1146 1147
1146 1177
1147 1148
1148 1149
1149 1150
1149 1171
1150 1151
1151 1152
1152 1153
1153 1154
1154 1155
1155 1156
1156 1157
1157 1158
1158 1159
1159 1160
1161 1162
1162 1163
1163 1164
1164 1165
1168 1169
1168 1170
1173 1174
1174 1175
1177 1178
1181 1182
1182 1183
1186 1187
1188 1189
1190 1191
1190 1196
1191 1192
1192 1193
1194 1195
1197 1199
1198 1224
1199 1200
1202 1203
1203 1204
1203 1238
1204 1205
1206 1207
1207 1208
1207 1212
1208 1209
1213 1214
1213 1217
1214 1215
1214 1216
1217 1218
1217 1228
1218 1219
1218 1225
1219 1220
1220 1221
1221 1222
1228 1229
1230 1231
1232 1235
1233 1234
1236 1237
1239 1240
1240 1241
1241 1242
1242 1243
1243 1244
1243 1250
1244 1245
1245 1246
1246 1247
1247 1248
1247 1249
1250 1251
