# Caudata clade from the Open Tree of Life; 1524 nodes, 1523 edges; canonical sorted order
0 42
1 42
2 42
3 42
4 42
5 42
6 42
7 42
8 42
9 1252
10 42
11 1262
12 1247
13 1260
14 1259
15 1261
16 1248
17 1243
18 1261
19 42
20 1245
21 1257
22 42
23 1240
24 42
25 1253
26 42
27 1253
28 1263
29 1262
30 42
31 1258
32 35
33 35
34 35
35 1256
36 1254
37 1240
38 1246
39 42
40 1248
41 1247
42 46
42 57
42 58
42 1239
42 1260
42 1262
42 1263
43 1254
44 1245
45 1256
47 1255
48 1263
49 1259
50 54
51 54
52 54
53 54
54 55
54 56
54 1244
58 1238
59 1230
60 61
61 63
61 64
61 1230
62 1230
64 1347
65 67
66 67
67 291
68 73
69 1163
70 1162
71 1160
72 1161
73 1139
73 1160
74 1163
75 78
76 78
77 1378
78 79
78 80
78 1376
78 1378
81 1378
82 461
82 1165
83 99
84 1350
85 1355
86 1359
87 1368
88 99
89 1353
90 1360
91 1362
92 1359
93 1365
94 1352
95 1361
96 1364
97 1365
98 1358
99 1349
99 1350
99 1368
100 1364
101 1353
102 1352
103 1350
104 1357
105 1358
106 1368
107 111
108 111
109 1282
110 1267
111 113
111 114
111 116
111 1264
111 1366
112 1267
115 1282
117 365
118 365
119 365
120 365
121 365
122 1441
123 245
124 1439
125 712
126 218
127 218
128 245
129 1449
130 1435
131 218
132 1429
133 218
134 218
135 1463
136 218
137 1467
138 1480
139 218
140 1422
141 365
142 218
143 602
144 218
145 365
146 218
147 1445
148 1446
149 1462
150 218
151 218
152 1475
153 365
154 1460
155 1468
156 1465
157 218
158 218
159 218
160 712
161 1465
162 1473
163 1423
164 1440
165 1459
166 1456
167 1485
168 1470
169 218
170 218
171 365
172 1427
173 365
174 218
175 598
176 1466
177 1475
178 1478
179 218
180 1481
181 218
182 218
183 218
184 218
185 1449
186 1428
187 1460
188 1431
189 1488
190 1470
191 1469
192 365
193 1476
194 218
195 218
196 1424
197 1441
198 218
199 1487
200 1425
201 1491
202 218
203 1457
204 1418
205 1490
206 1431
207 1445
208 218
209 1481
210 1479
211 1493
212 1476
213 218
214 602
215 1487
216 1463
217 1419
218 219
218 221
218 225
218 228
218 235
218 236
218 238
218 250
218 251
218 253
218 255
218 257
218 258
218 261
218 262
218 1373
218 1417
218 1479
218 1482
220 1440
222 1433
223 1439
224 1429
226 245
227 1469
229 245
230 1478
231 1448
232 1446
233 1474
234 1493
237 1444
239 1435
240 365
241 1425
242 365
243 1491
244 1494
245 1483
245 1485
246 1430
247 1459
248 1467
249 1419
252 365
254 1430
256 365
259 1494
260 1489
263 1477
264 265
264 1501
266 268
267 268
268 1297
269 292
269 1236
270 272
271 272
272 1344
273 1080
274 287
275 1080
276 1084
277 287
278 1085
279 1086
280 287
281 1087
282 1082
283 287
284 1080
285 1085
286 1087
287 290
287 1080
287 1086
287 1371
288 1083
289 1084
291 292
291 296
292 476
293 295
294 295
295 296
296 297
298 302
299 1071
300 1071
301 302
302 1071
302 1499
303 1072
304 1072
305 314
306 308
307 308
308 1279
309 1280
310 1278
311 1279
312 1278
313 1277
314 316
314 317
314 1275
314 1276
314 1280
315 1280
318 325
319 1078
320 1076
321 1076
322 325
323 1075
324 1079
325 1073
325 1074
325 1077
326 1075
327 1077
328 1079
329 348
330 1145
331 1157
332 1149
333 348
334 1155
335 1146
336 1156
337 348
338 1150
339 1142
340 1155
341 1157
342 1159
343 1156
344 1152
345 1151
346 1152
347 1145
348 352
348 354
348 1141
348 1142
349 1153
350 1159
351 1150
353 1154
355 1266
356 1266
357 1265
358 359
358 360
358 1265
360 1238
361 364
362 364
363 364
364 1317
365 1417
365 1418
365 1421
365 1431
365 1432
365 1448
366 370
367 370
368 370
369 370
370 371
370 372
370 373
370 374
374 1138
375 376
376 377
376 1272
378 412
379 412
380 412
381 412
382 422
383 422
384 436
385 436
386 436
387 436
388 436
389 436
390 436
391 436
392 436
393 436
394 436
395 436
396 1129
397 1128
398 1107
399 422
400 422
401 422
402 422
403 422
404 422
405 422
406 1109
407 1121
408 1126
409 1125
410 1107
411 1129
412 413
412 1118
414 416
415 416
416 1125
417 1124
418 419
419 1130
420 1115
421 1120
422 423
422 1116
424 1107
425 1107
426 1117
427 1110
428 1119
429 1108
430 1114
431 1131
432 1107
433 1107
434 1121
435 1118
436 437
436 1113
438 1131
439 1119
440 1127
441 1135
442 448
442 1132
442 1134
443 444
444 445
444 1135
446 448
447 448
448 449
450 1134
451 452
451 1123
453 454
453 814
453 1348
454 455
456 458
457 458
458 1167
459 1173
460 1170
462 463
463 1171
464 1167
465 466
465 468
465 470
465 473
465 1173
466 1137
466 1165
467 1173
469 1171
471 1166
472 1170
474 475
475 814
476 707
476 1291
477 1326
478 1326
479 1326
480 1326
481 1326
482 1326
483 1450
484 1326
485 1513
486 1343
487 1329
488 1497
489 1416
490 1342
491 1326
492 822
493 1336
494 1495
495 1326
496 1484
497 1367
498 1326
499 1369
500 1329
501 1326
502 1391
503 1442
504 1497
505 1521
506 1436
507 1464
508 1420
509 1326
510 947
510 1312
510 1326
511 1326
512 1406
513 947
514 1326
515 1326
516 1343
517 1326
518 1521
519 1464
520 1450
521 1326
522 1420
523 1326
524 1367
525 1326
526 1326
527 1391
528 1492
529 532
530 532
531 532
532 533
532 534
532 535
532 536
532 537
537 1270
538 539
538 1310
540 541
541 1379
542 1382
543 547
544 1381
545 1382
546 1381
547 548
547 1376
547 1379
547 1382
548 549
550 551
551 552
551 1401
553 554
554 1140
555 556
556 1273
557 558
558 566
559 566
560 561
561 1311
562 1311
563 566
564 566
565 1309
566 1270
566 1308
567 571
568 571
569 571
570 571
571 572
571 573
571 574
571 575
571 576
571 1309
577 578
577 579
577 580
577 1415
581 583
582 583
583 1341
584 1340
585 587
586 587
587 588
587 1341
589 590
589 1337
591 1339
592 1338
593 596
594 596
595 596
596 597
597 1330
597 1337
598 1482
598 1494
599 601
600 601
601 1344
602 1483
602 1493
603 610
604 1235
605 1234
606 610
607 610
608 610
609 1235
610 823
610 1233
611 1233
612 1306
613 1306
614 1305
615 617
615 1303
615 1305
616 617
617 618
619 621
620 621
621 622
622 624
622 1313
622 1314
623 1314
625 1314
626 1064
627 1069
628 1069
629 639
630 1064
631 1062
632 1070
633 1070
634 639
635 1065
636 639
637 639
638 639
639 645
639 646
639 1060
639 1066
639 1500
640 1065
641 1067
642 1060
643 1061
644 1068
647 648
647 1073
649 1472
649 1476
649 1477
650 673
651 1518
652 673
653 689
654 673
655 689
656 1522
657 1510
658 1520
659 1512
660 1522
661 673
662 1503
663 1516
664 1508
665 673
666 1523
667 1511
668 1515
669 1519
670 673
671 1523
672 673
673 676
673 677
673 681
673 682
673 687
673 688
673 693
673 1501
673 1502
674 1517
675 1520
678 1514
679 1512
680 693
683 1518
684 689
685 689
686 1507
689 1506
689 1507
689 1508
690 1507
691 1503
692 1517
693 1523
694 697
695 696
696 697
697 699
697 1303
698 699
699 700
701 707
702 1204
703 1172
704 1164
705 1204
706 1172
707 1164
707 1200
708 1168
709 1200
710 711
710 1136
712 1471
713 723
714 723
715 1292
716 1294
717 1292
718 1293
719 1294
720 1295
721 723
722 1295
723 724
723 725
723 1274
723 1292
723 1295
726 1310
727 1307
728 739
729 739
730 1285
731 1286
732 1288
733 739
734 1289
735 1290
736 1287
737 1284
738 1284
739 740
739 1275
739 1281
739 1286
741 1285
742 1290
743 1283
744 745
744 1374
746 747
747 1141
748 749
749 940
750 791
751 1175
752 1203
753 1189
754 1210
755 1228
756 1186
757 1205
758 1181
759 1186
760 1182
761 1220
762 1185
763 791
764 1211
765 1227
766 1218
767 1229
768 1206
769 1183
770 791
771 1201
772 1215
773 1217
774 791
775 1224
776 791
777 1192
778 1191
779 1196
780 1198
781 1223
782 791
783 1189
784 1188
785 1196
786 1188
787 1225
788 1216
789 1202
790 791
791 793
791 815
791 1174
791 1222
792 1206
794 1177
795 1212
796 1218
797 1202
798 1203
799 1221
800 1220
801 1221
802 1194
803 1229
804 1185
805 1224
806 1182
807 1227
808 1211
809 1219
810 1207
811 1212
812 1209
813 1193
814 815
814 1347
815 1137
816 1328
817 819
817 1316
817 1328
818 1328
819 820
821 1268
821 1269
821 1316
822 1327
822 1336
823 824
823 1345
824 825
824 826
827 828
828 829
828 830
828 956
831 1374
832 1413
833 1374
834 1409
835 1374
836 1389
837 1408
838 1409
839 1395
840 1407
841 1399
842 1410
843 1408
844 1390
845 1399
846 1397
847 1412
848 1398
849 1410
850 1374
851 1374
852 1393
853 1392
854 1395
855 1396
856 1374
857 1414
858 1401
859 1413
860 1388
861 1390
862 1414
863 1411
864 1374
865 1374
866 1374
867 1387
868 1394
869 1059
870 1199
871 1059
872 1199
873 874
873 1415
873 1496
875 1158
876 879
877 879
878 879
879 880
880 882
880 1133
881 882
882 883
882 884
882 885
886 887
886 1304
888 1231
889 1231
890 1232
891 893
891 1231
891 1232
892 1232
893 1346
894 895
895 896
895 897
895 898
895 1332
899 901
900 901
901 902
901 903
901 1334
904 1335
905 916
906 916
907 916
908 910
909 910
910 911
910 1331
912 1335
913 916
914 916
915 916
916 917
916 918
916 935
916 936
916 1330
916 1331
916 1334
919 931
920 931
921 931
922 931
923 931
924 931
925 931
926 931
927 931
928 931
929 931
930 931
931 932
931 933
931 934
931 1332
937 938
938 939
938 1136
940 945
940 1237
940 1268
941 942
941 943
941 945
944 1268
944 1330
944 1344
946 1236
946 1237
946 1345
948 950
949 950
950 951
950 954
952 954
953 954
954 955
954 956
956 957
957 1236
958 1165
958 1166
958 1169
959 1058
960 1058
961 962
961 1133
963 1315
964 965
964 966
964 1313
964 1315
967 968
967 969
967 1315
970 989
971 1088
972 1103
973 1100
974 1100
975 1091
976 1102
977 1088
978 1093
979 1104
980 1103
981 1089
982 989
983 1098
984 1094
985 1104
986 1088
987 1098
988 1102
989 991
989 1088
989 1104
989 1370
990 1097
992 1095
993 1101
994 1089
995 1095
996 1094
997 1091
998 1018
999 1018
1000 1018
1001 1018
1002 1018
1003 1004
1004 1302
1005 1301
1006 1008
1007 1008
1008 1299
1009 1018
1010 1299
1011 1013
1012 1013
1013 1301
1014 1018
1015 1302
1016 1017
1017 1298
1018 1020
1018 1297
1018 1298
1018 1299
1019 1298
1021 1039
1022 1039
1023 1047
1024 1047
1025 1039
1026 1319
1027 1039
1028 1039
1029 1039
1030 1047
1031 1039
1032 1047
1033 1047
1034 1323
1035 1039
1036 1325
1037 1047
1038 1319
1039 1045
1039 1046
1039 1317
1039 1318
1039 1320
1039 1321
1040 1320
1041 1047
1042 1047
1043 1322
1044 1047
1047 1048
1047 1321
1047 1322
1047 1324
1049 1324
1050 1051
1050 1323
1052 1320
1053 1054
1054 1325
1055 1324
1056 1318
1057 1058
1058 1106
1059 1496
1060 1061
1061 1062
1062 1063
1063 1064
1063 1065
1066 1067
1066 1070
1067 1068
1068 1069
1071 1072
1073 1498
1074 1075
1074 1076
1077 1078
1078 1079
1080 1081
1081 1082
1081 1085
1082 1083
1083 1084
1086 1087
1088 1089
1088 1090
1088 1096
1088 1103
1090 1091
1090 1092
1092 1093
1092 1095
1093 1094
1096 1097
1096 1099
1097 1098
1099 1100
1099 1101
1101 1102
1105 1106
1105 1132
1105 1348
1106 1107
1107 1108
1107 1130
1108 1109
1108 1122
1109 1110
1110 1111
1111 1112
1111 1120
1112 1113
1112 1119
1113 1114
1114 1115
1115 1116
1116 1117
1117 1118
1120 1121
1122 1123
1122 1126
1123 1124
1124 1125
1126 1127
1127 1128
1128 1129
1130 1131
1132 1133
1134 1135
1136 1291
1137 1138
1138 1139
1139 1140
1140 1141
1142 1143
1143 1144
1143 1159
1144 1145
1144 1157
1145 1146
1145 1156
1146 1147
1147 1148
1147 1153
1148 1149
1148 1151
1149 1150
1151 1152
1153 1154
1154 1155
1158 1199
1158 1496
1160 1161
1161 1162
1162 1163
1164 1168
1166 1167
1168 1172
1169 1170
1169 1171
1174 1175
1174 1213
1175 1176
1176 1177
1176 1207
1177 1178
1178 1179
1178 1190
1179 1180
1179 1187
1180 1181
1180 1183
1181 1182
1183 1184
1184 1185
1184 1186
1187 1188
1187 1189
1190 1191
1190 1205
1191 1192
1192 1193
1193 1194
1194 1195
1195 1196
1195 1197
1197 1198
1197 1203
1198 1201
1200 1204
1201 1202
1205 1206
1207 1208
1208 1209
1208 1212
1209 1210
1210 1211
1213 1214
1213 1221
1214 1215
1214 1219
1215 1216
1216 1217
1217 1218
1219 1220
1222 1223
1222 1225
1223 1224
1225 1226
1226 1227
1226 1228
1228 1229
1233 1234
1234 1235
1237 1238
1239 1240
1239 1241
1241 1242
1241 1249
1242 1243
1242 1248
1243 1244
1244 1245
1245 1246
1246 1247
1249 1250
1249 1257
1250 1251
1250 1255
1251 1252
1251 1254
1252 1253
1255 1256
1257 1258
1258 1259
1260 1261
1264 1267
1264 1282
1265 1266
1269 1270
1269 1313
1270 1271
1271 1272
1271 1296
1272 1273
1273 1274
1274 1275
1276 1277
1276 1279
1277 1278
1281 1283
1281 1285
1283 1284
1286 1287
1287 1288
1288 1289
1289 1290
1291 1312
1292 1293
1293 1294
1296 1297
1296 1303
1299 1300
1300 1301
1300 1302
1304 1307
1304 1333
1305 1306
1307 1310
1308 1309
1308 1311
1312 1333
1316 1317
1318 1319
1321 1325
1322 1323
1326 1327
1326 1367
1327 1329
1331 1332
1333 1366
1334 1335
1336 1342
1337 1338
1338 1339
1339 1340
1340 1341
1342 1343
1345 1346
1346 1347
1348 1349
1349 1370
1350 1351
1350 1354
1351 1352
1351 1353
1354 1355
1354 1360
1355 1356
1356 1357
1356 1359
1357 1358
1360 1361
1361 1362
1362 1363
1363 1364
1363 1365
1366 1415
1367 1369
1367 1513
1369 1377
1370 1371
1371 1372
1372 1373
1372 1498
1373 1374
1374 1375
1375 1376
1375 1384
1377 1380
1377 1484
1379 1381
1380 1383
1380 1436
1383 1391
1383 1406
1384 1385
1384 1400
1385 1386
1385 1396
1386 1387
1386 1392
1387 1388
1388 1389
1389 1390
1392 1393
1393 1394
1394 1395
1396 1397
1397 1398
1398 1399
1400 1401
1400 1402
1402 1403
1402 1414
1403 1404
1403 1411
1404 1405
1404 1410
1405 1407
1405 1409
1406 1416
1407 1408
1411 1412
1412 1413
1416 1420
1417 1451
1418 1419
1421 1422
1421 1426
1422 1423
1423 1424
1424 1425
1426 1427
1426 1430
1427 1428
1428 1429
1432 1433
1432 1443
1433 1434
1434 1435
1434 1437
1436 1442
1437 1438
1437 1441
1438 1439
1438 1440
1442 1447
1443 1444
1443 1446
1444 1445
1447 1450
1447 1464
1448 1449
1451 1452
1451 1471
1452 1453
1452 1470
1453 1454
1453 1468
1454 1455
1454 1466
1455 1456
1455 1461
1456 1457
1457 1458
1458 1459
1458 1460
1461 1462
1461 1465
1462 1463
1466 1467
1468 1469
1471 1472
1472 1473
1473 1474
1474 1475
1477 1478
1479 1480
1480 1481
1482 1483
1484 1492
1485 1486
1486 1487
1486 1488
1488 1489
1489 1490
1490 1491
1492 1495
1495 1497
1498 1499
1499 1500
1500 1501
1502 1503
1502 1504
1504 1505
1504 1522
1505 1506
1505 1519
1506 1518
1508 1509
1509 1510
1509 1514
1510 1511
1511 1512
1513 1521
1514 1515
1515 1516
1516 1517
1519 1520
