# Cephalopoda clade from the Open Tree of Life; 1756 nodes, 1755 edges; canonical sorted order
0 1591
1 1582
2 1558
3 1558
4 1558
5 1558
6 1558
7 423
8 27
9 116
10 19
11 116
12 306
13 306
14 984
15 423
16 306
17 27
18 984
19 27
19 115
19 116
19 306
19 423
19 984
19 1634
20 984
21 27
22 423
23 423
24 984
25 27
26 27
28 423
29 115
30 1461
31 946
32 946
33 946
34 946
35 189
36 618
37 1712
38 618
39 1712
40 1714
41 1712
42 43
43 44
43 45
43 607
46 1419
46 1711
47 48
48 1716
49 50
49 642
51 411
51 1594
52 1717
53 54
54 1716
54 1717
55 1717
56 57
57 1730
58 59
59 1573
60 1574
61 1574
62 1574
63 1574
64 1574
65 1574
66 1581
67 1574
68 1574
69 1584
70 1574
71 1580
72 1584
73 1574
74 1575
75 1583
76 1577
77 1574
78 1583
79 1574
80 1577
81 1574
82 1437
82 1502
82 1524
83 84
83 461
83 1524
84 85
84 86
87 88
88 1187
89 91
89 269
90 91
92 93
93 1597
94 1479
95 1479
96 101
96 1608
97 101
98 1609
99 1610
100 1610
101 1609
102 103
102 104
102 105
102 106
102 107
102 108
108 1595
109 486
109 1594
109 1595
110 114
111 114
112 114
113 114
114 1629
117 119
117 638
118 119
120 125
121 125
122 125
123 125
124 125
125 1737
126 127
127 1371
128 133
128 1476
129 1527
130 1527
131 133
132 133
133 134
133 135
133 137
133 139
133 1527
133 1528
136 1528
138 1528
140 141
140 607
142 145
142 146
143 145
144 145
146 226
146 1704
147 148
147 1628
148 149
150 269
151 1519
152 1515
153 1522
154 1517
155 1483
156 1483
157 624
158 624
159 175
160 175
161 175
162 1499
163 1483
164 1493
165 1483
166 1483
167 1483
168 1483
169 1483
170 1483
171 1483
172 1483
173 1483
174 1483
175 1499
176 1483
177 1483
178 1483
179 1483
180 1483
181 848
182 184
183 184
184 1497
185 186
186 187
186 188
186 301
188 496
188 1524
189 269
190 196
190 1343
190 1604
191 196
192 196
193 196
194 196
195 196
196 197
196 198
199 1532
200 1548
201 1545
202 1543
203 1539
204 1545
205 1532
206 1532
207 1546
208 1532
209 1546
210 1532
211 213
212 213
213 251
213 643
214 1632
215 218
216 218
217 218
218 219
218 220
218 221
218 274
218 1631
218 1632
222 1632
223 1627
224 225
224 1187
226 228
227 228
228 229
230 718
230 1467
230 1468
231 237
231 1468
232 237
233 237
234 237
235 237
236 237
238 240
238 244
238 343
238 508
238 1467
239 240
241 244
242 244
243 244
245 1560
246 1588
247 1560
248 1561
249 1560
250 1560
251 698
252 529
253 254
253 1651
255 256
256 257
256 305
256 422
256 547
256 920
256 947
256 967
256 1371
256 1643
257 529
257 1651
258 259
259 891
260 261
261 262
261 612
263 1728
264 265
265 266
265 1604
267 268
268 720
269 618
269 698
269 946
269 968
269 1062
269 1165
269 1461
269 1646
270 1374
271 273
272 273
273 1612
275 1675
276 1726
277 1722
278 1724
279 1725
280 283
281 283
282 1722
283 1726
284 1722
285 286
286 1655
287 290
288 290
289 290
290 1621
291 292
292 1371
293 298
294 1480
295 298
296 1480
297 298
298 299
298 300
298 303
298 1479
298 1480
302 1532
303 1478
304 305
307 1633
308 1633
309 1633
310 1637
311 1705
312 1633
313 1642
314 1633
315 1633
316 1633
317 1642
318 1633
319 1501
320 1500
321 1481
322 1481
323 324
323 325
323 326
323 720
327 328
328 1654
329 1755
330 1456
331 1755
332 1456
333 1755
334 1457
335 1755
336 1755
337 1755
338 1454
339 1755
340 1455
341 342
342 1525
344 345
345 720
346 1649
347 1647
348 1647
349 1647
350 1647
351 1647
352 353
352 357
352 1495
352 1730
352 1731
354 1453
355 1495
356 1752
358 1453
359 1740
360 1731
361 1731
362 1731
363 1460
364 1460
365 1731
366 1731
367 1731
368 1731
369 1738
370 1466
371 1466
372 1731
373 1740
374 1731
375 1733
376 1731
377 1731
378 1518
379 1518
380 1520
381 1518
382 1518
383 1518
384 1518
385 1520
386 1518
387 388
388 1631
389 390
389 391
389 1551
392 402
393 402
394 402
395 402
396 402
397 402
398 402
399 402
400 402
401 402
402 403
402 404
402 405
402 406
402 407
402 408
402 1474
409 411
410 411
412 417
413 1586
414 1586
415 1585
416 417
417 1572
417 1585
418 419
419 420
419 421
419 1650
424 425
425 1720
426 431
427 1356
428 434
429 1356
430 431
431 432
431 434
431 1356
431 1458
433 1356
434 435
436 438
436 439
436 441
436 442
436 443
436 445
436 446
436 447
436 448
436 449
436 451
436 453
436 1635
436 1636
436 1638
437 1636
440 1639
444 1640
450 1641
452 1641
454 1639
455 456
456 457
456 720
458 459
458 1653
460 461
462 469
462 548
462 1461
463 469
464 1463
465 469
466 1462
467 469
468 469
469 473
469 1462
470 1465
471 1464
472 1465
474 476
475 476
476 477
476 1624
478 854
479 854
480 854
481 854
482 1657
483 1665
484 1665
485 854
486 718
486 720
487 490
488 490
489 490
490 1191
491 493
492 493
493 1187
494 496
495 496
496 497
498 499
499 501
499 1619
500 501
501 502
503 506
504 506
505 506
506 1599
507 508
509 510
510 567
511 512
511 514
511 515
511 516
511 517
511 519
511 520
511 1651
511 1652
513 1652
518 1652
521 522
522 720
523 524
524 526
524 1614
525 526
527 528
527 1371
529 530
529 531
529 532
533 612
533 638
533 705
533 953
533 1197
533 1198
533 1199
533 1200
533 1201
533 1202
533 1203
533 1204
533 1205
533 1206
533 1207
533 1208
533 1209
533 1210
533 1211
533 1212
533 1213
533 1214
533 1215
533 1216
533 1217
533 1218
533 1219
533 1220
533 1221
533 1222
533 1223
533 1224
533 1225
533 1226
533 1227
533 1228
533 1229
533 1230
533 1231
533 1232
533 1233
533 1234
533 1235
533 1236
533 1237
533 1238
533 1239
533 1240
533 1241
533 1242
533 1243
533 1244
533 1245
533 1246
533 1247
533 1248
533 1249
533 1250
533 1251
533 1252
533 1253
533 1254
533 1255
533 1256
533 1257
533 1258
533 1259
533 1260
533 1261
533 1262
533 1263
533 1264
533 1265
533 1266
533 1267
533 1268
533 1269
533 1270
533 1271
533 1272
533 1273
533 1274
533 1275
533 1276
533 1277
533 1278
533 1279
533 1280
533 1281
533 1282
533 1283
533 1284
533 1285
533 1286
533 1287
533 1288
533 1289
533 1290
533 1291
533 1292
533 1293
533 1294
533 1295
533 1296
533 1297
533 1298
533 1299
533 1300
533 1301
533 1302
533 1303
533 1304
533 1305
533 1306
533 1307
533 1308
533 1309
533 1310
533 1311
533 1312
533 1313
533 1314
533 1315
533 1316
533 1317
533 1318
533 1319
533 1320
533 1321
533 1322
533 1323
533 1324
533 1325
533 1326
533 1327
533 1328
533 1329
533 1330
533 1331
533 1332
533 1333
533 1334
533 1335
533 1336
533 1337
533 1338
533 1340
533 1706
533 1727
534 1725
535 1707
536 1707
537 1707
538 1707
539 1707
540 1718
541 1707
542 1707
543 1707
544 1719
545 1707
546 1719
549 560
549 561
550 1711
551 555
552 704
553 555
554 704
555 1710
556 704
557 704
558 563
559 563
561 563
561 1721
562 563
564 565
565 566
565 891
567 569
567 695
567 1026
567 1606
568 569
569 570
571 572
571 720
573 574
574 1551
575 577
576 577
577 720
578 580
579 580
580 581
580 582
580 583
583 1626
584 1623
585 1623
586 1624
587 1623
588 589
589 854
590 591
590 1626
592 600
593 600
594 600
595 600
596 600
597 600
598 600
599 600
600 601
600 602
600 1621
603 604
603 1621
605 606
605 1513
607 620
607 965
607 1379
607 1439
607 1502
607 1503
608 1650
609 1644
610 1371
611 1371
613 614
614 1649
615 616
615 617
615 1700
619 620
621 1485
622 1485
623 1485
624 1489
625 1485
626 1485
627 1493
628 1485
629 1494
630 1485
631 1492
632 1490
633 1489
634 1485
635 1485
636 1494
637 1485
638 1666
639 640
640 1728
641 642
641 643
642 678
644 678
645 678
646 678
647 678
648 678
649 678
650 678
651 678
652 678
653 678
654 678
655 678
656 678
657 678
658 678
659 678
660 678
661 678
662 678
663 678
664 678
665 678
666 678
667 678
668 678
669 678
670 678
671 678
672 678
673 678
674 678
675 678
676 678
677 678
678 679
678 680
678 681
678 682
678 683
678 684
678 685
678 686
678 687
678 688
678 689
678 690
678 691
678 692
693 694
693 1187
695 696
695 697
698 719
699 701
700 701
701 1742
702 703
702 1608
704 1710
705 707
706 707
708 711
709 711
710 711
711 1529
712 713
713 1728
714 1660
715 1662
716 1661
717 1660
718 719
719 1428
720 729
720 730
720 731
720 732
720 733
720 741
720 742
720 744
720 745
720 747
720 750
720 751
720 752
720 755
720 756
720 757
720 758
720 759
720 760
720 761
720 762
720 763
720 764
720 765
720 766
720 767
720 768
720 769
720 770
720 771
720 772
720 773
720 775
720 777
720 778
720 779
720 780
720 781
720 782
720 783
720 784
720 785
720 786
720 788
720 789
720 790
720 791
720 793
720 794
720 795
720 797
720 798
720 800
720 802
720 804
720 805
720 806
720 807
720 810
720 811
720 812
720 817
720 818
720 819
720 820
720 823
720 824
720 829
720 830
720 831
720 832
720 833
720 836
720 837
720 838
720 839
720 841
720 842
720 844
720 945
720 956
720 964
720 977
720 996
720 1018
720 1378
720 1393
720 1451
720 1476
720 1530
721 722
721 723
721 724
721 727
721 728
721 1614
721 1615
725 1616
726 1615
734 1552
735 1582
736 1544
737 1539
738 1590
739 1568
740 1552
743 1555
746 1554
748 1567
749 1562
753 1536
754 1498
774 1500
776 1589
787 1501
792 1587
796 1556
799 1543
801 1591
803 1569
808 1569
809 1535
813 1565
814 1564
815 1555
816 1588
821 1592
822 1592
825 1549
826 1496
827 1549
828 1496
834 1531
835 1566
840 1566
843 1587
845 846
845 847
847 1595
848 1497
849 852
850 852
851 852
852 853
852 1656
854 993
854 1643
854 1653
854 1664
855 879
855 880
855 881
855 882
855 883
855 884
855 886
855 1355
855 1445
855 1523
855 1525
855 1598
856 877
857 877
858 877
859 877
860 877
861 877
862 877
863 877
864 1559
865 1547
866 867
867 877
868 877
869 1542
870 877
871 1547
872 1559
873 877
874 877
875 877
876 877
877 878
877 1529
877 1542
877 1559
885 1597
887 1599
888 1601
889 1602
890 1602
891 1468
891 1469
892 1473
893 1474
894 1472
895 1469
896 1469
897 1469
898 1469
899 1469
900 1475
901 1469
902 1469
903 1475
904 1469
905 1469
906 1469
907 1469
908 1471
909 1469
910 1472
911 1469
912 1469
913 1469
914 1469
915 1469
916 1469
917 918
918 919
918 1658
920 921
922 936
923 936
924 936
925 936
926 936
927 1510
928 1512
929 1508
930 936
931 1511
932 1512
933 1511
934 936
935 936
936 938
936 941
936 1504
936 1505
937 1507
939 1507
940 1508
942 945
943 945
944 945
948 951
948 1618
949 951
950 951
952 953
953 954
953 955
957 1627
958 1627
959 1627
960 1627
961 1630
962 1627
963 1627
965 966
968 970
969 970
970 971
970 972
973 975
973 1635
974 975
976 977
977 978
977 979
980 1625
981 985
982 1625
983 1605
985 986
985 988
985 990
985 1603
985 1605
985 1620
987 1605
989 1620
991 993
992 993
993 994
995 996
997 998
998 1748
999 1739
1000 1739
1001 1739
1002 1739
1003 1739
1004 1739
1005 1739
1006 1741
1007 1739
1008 1739
1009 1739
1010 1739
1011 1743
1012 1739
1013 1739
1014 1015
1015 1371
1016 1017
1016 1481
1018 1019
1020 1022
1021 1022
1022 1023
1022 1024
1022 1025
1022 1554
1026 1027
1028 1029
1029 1030
1029 1031
1029 1743
1032 1692
1033 1166
1034 1166
1035 1677
1036 1166
1037 1699
1038 1166
1039 1166
1040 1166
1041 1682
1042 1166
1043 1166
1044 1166
1045 1685
1046 1166
1047 1166
1048 1166
1049 1166
1050 1166
1051 1166
1052 1166
1053 1166
1054 1166
1055 1166
1056 1166
1057 1166
1058 1696
1059 1694
1060 1166
1061 1166
1063 1166
1064 1692
1065 1166
1066 1702
1067 1166
1068 1166
1069 1676
1070 1697
1071 1166
1072 1671
1073 1166
1074 1686
1075 1678
1076 1166
1077 1166
1078 1166
1079 1166
1080 1166
1081 1166
1082 1674
1083 1166
1084 1698
1085 1166
1086 1166
1087 1683
1088 1690
1089 1672
1090 1166
1091 1166
1092 1166
1093 1166
1094 1166
1095 1166
1096 1686
1097 1166
1098 1701
1099 1695
1100 1166
1101 1703
1102 1681
1103 1679
1104 1166
1105 1166
1106 1166
1107 1703
1108 1166
1109 1166
1110 1697
1111 1166
1112 1690
1113 1166
1114 1166
1115 1691
1116 1166
1117 1166
1118 1166
1119 1166
1120 1166
1121 1166
1122 1166
1123 1693
1124 1166
1125 1683
1126 1166
1127 1166
1128 1681
1129 1166
1130 1166
1131 1166
1132 1670
1133 1166
1134 1679
1135 1166
1136 1166
1137 1166
1138 1166
1139 1166
1140 1166
1141 1166
1142 1166
1143 1694
1144 1166
1145 1151
1145 1194
1145 1735
1146 1151
1147 1151
1148 1151
1149 1151
1150 1151
1152 1158
1153 1158
1154 1158
1155 1158
1156 1158
1157 1158
1158 1159
1158 1160
1158 1684
1161 1749
1162 1747
1163 1749
1164 1747
1166 1667
1166 1668
1166 1698
1167 1191
1168 1191
1169 1753
1170 1751
1171 1191
1172 1191
1173 1457
1174 1191
1175 1191
1176 1754
1177 1191
1178 1746
1179 1191
1180 1191
1181 1754
1182 1751
1183 1191
1184 1191
1185 1191
1186 1191
1187 1735
1187 1736
1187 1744
1188 1189
1189 1190
1189 1458
1191 1744
1191 1745
1191 1755
1192 1194
1193 1194
1194 1195
1196 1727
1339 1727
1341 1706
1342 1343
1344 1345
1344 1347
1346 1348
1346 1667
1347 1348
1349 1352
1349 1467
1350 1352
1351 1352
1352 1353
1352 1354
1357 1358
1357 1359
1357 1656
1360 1363
1361 1363
1362 1363
1363 1636
1364 1366
1365 1366
1366 1737
1367 1368
1368 1616
1369 1370
1370 1627
1371 1644
1371 1650
1372 1374
1373 1374
1374 1375
1374 1648
1376 1378
1377 1378
1379 1380
1381 1384
1382 1384
1383 1384
1384 1385
1384 1645
1386 1504
1387 1516
1388 1522
1389 1503
1390 1521
1391 1503
1392 1393
1394 1395
1394 1596
1395 1396
1397 1659
1398 1659
1399 1662
1400 1659
1401 1659
1402 1403
1403 1664
1404 1407
1404 1594
1405 1407
1406 1407
1407 1408
1407 1409
1410 1707
1411 1707
1412 1425
1413 1707
1414 1724
1415 1713
1416 1713
1417 1707
1418 1707
1420 1707
1421 1707
1422 1707
1423 1707
1424 1707
1425 1707
1426 1707
1427 1627
1428 1429
1429 1431
1430 1431
1432 1433
1432 1514
1434 1435
1435 1436
1435 1437
1438 1439
1440 1487
1441 1445
1442 1445
1443 1445
1444 1445
1445 1446
1445 1447
1445 1448
1449 1450
1449 1714
1451 1452
1453 1752
1454 1455
1454 1755
1455 1456
1457 1755
1458 1744
1459 1460
1459 1466
1459 1732
1462 1463
1463 1464
1464 1465
1469 1470
1469 1475
1470 1471
1470 1473
1471 1472
1473 1474
1476 1477
1477 1478
1477 1502
1478 1481
1481 1482
1481 1501
1482 1483
1482 1500
1483 1484
1484 1485
1484 1498
1485 1486
1486 1487
1486 1496
1487 1488
1488 1489
1488 1490
1490 1491
1491 1492
1491 1494
1492 1493
1495 1497
1498 1499
1503 1504
1503 1513
1505 1506
1505 1509
1506 1507
1506 1508
1509 1510
1509 1512
1510 1511
1513 1514
1514 1515
1515 1516
1515 1521
1516 1517
1517 1518
1518 1519
1519 1520
1521 1522
1523 1604
1523 1729
1525 1526
1526 1529
1526 1597
1530 1531
1530 1556
1531 1532
1532 1533
1533 1534
1533 1553
1534 1535
1534 1550
1535 1536
1536 1537
1537 1538
1537 1548
1538 1539
1538 1540
1540 1541
1540 1546
1541 1543
1541 1544
1542 1547
1544 1545
1548 1549
1550 1551
1550 1552
1553 1554
1553 1555
1556 1557
1557 1558
1557 1592
1558 1560
1558 1589
1560 1561
1560 1570
1561 1562
1562 1563
1563 1564
1563 1567
1564 1565
1565 1566
1567 1568
1568 1569
1570 1571
1570 1588
1571 1572
1571 1587
1572 1573
1573 1574
1574 1575
1575 1576
1576 1577
1576 1578
1578 1579
1578 1584
1579 1580
1579 1583
1580 1581
1581 1582
1585 1586
1589 1590
1590 1591
1593 1596
1593 1643
1593 1704
1596 1600
1598 1599
1598 1601
1600 1603
1600 1728
1601 1602
1603 1633
1606 1607
1606 1728
1607 1608
1607 1611
1609 1610
1611 1612
1611 1635
1612 1613
1613 1614
1613 1617
1615 1616
1617 1618
1617 1627
1618 1619
1619 1621
1620 1625
1621 1622
1622 1623
1622 1626
1623 1624
1627 1628
1628 1629
1629 1630
1630 1631
1633 1634
1633 1705
1634 1637
1637 1642
1638 1639
1638 1640
1640 1641
1644 1645
1645 1647
1646 1663
1646 1735
1647 1648
1648 1649
1653 1654
1653 1657
1654 1655
1655 1656
1657 1658
1658 1659
1659 1660
1660 1661
1661 1662
1663 1666
1663 1704
1664 1665
1666 1667
1668 1669
1668 1687
1669 1670
1669 1684
1670 1671
1671 1672
1672 1673
1673 1674
1673 1680
1674 1675
1675 1676
1676 1677
1677 1678
1678 1679
1680 1681
1680 1682
1682 1683
1684 1685
1685 1686
1687 1688
1687 1695
1688 1689
1688 1693
1689 1690
1689 1691
1691 1692
1693 1694
1695 1696
1696 1697
1698 1699
1699 1700
1700 1701
1701 1702
1702 1703
1705 1712
1706 1707
1707 1708
1707 1720
1708 1709
1708 1715
1709 1710
1709 1713
1710 1711
1712 1714
1715 1716
1715 1718
1718 1719
1720 1721
1721 1722
1722 1723
1722 1726
1723 1724
1723 1725
1728 1729
1729 1730
1731 1732
1732 1733
1733 1734
1734 1738
1734 1752
1736 1737
1736 1739
1738 1740
1739 1741
1741 1742
1742 1743
1745 1746
1745 1750
1746 1747
1747 1748
1748 1749
1750 1751
1750 1753
1753 1754
