# Cetacea clade from the Open Tree of Life; 372 nodes, 371 edges; canonical sorted order
0 2
0 346
1 347
2 4
2 347
3 347
5 342
6 170
7 8
8 323
9 10
10 52
11 339
12 339
13 14
13 338
13 339
15 16
16 341
17 168
17 335
17 336
18 19
18 20
18 316
21 311
22 323
23 311
24 316
25 320
26 321
27 321
28 318
29 319
30 317
31 312
32 33
33 341
34 35
34 272
35 268
36 39
37 39
38 39
39 284
40 41
41 332
42 43
43 173
44 358
45 358
46 361
47 49
48 49
49 357
50 51
51 331
52 272
52 345
53 160
53 300
54 79
55 304
56 57
56 326
56 332
58 332
59 60
59 96
59 167
61 62
62 269
63 64
64 166
65 184
65 325
65 330
66 71
67 71
68 371
69 70
69 371
71 72
71 73
71 369
71 371
74 75
75 324
76 77
76 303
78 95
78 313
78 322
79 322
80 81
80 82
80 322
83 86
84 340
85 340
86 338
86 340
87 88
88 348
89 91
90 91
91 350
92 93
93 343
94 95
96 346
97 98
98 99
98 299
100 101
100 299
102 107
103 107
104 106
105 106
106 107
107 108
108 283
109 110
110 137
111 112
112 113
112 114
114 301
115 118
116 118
117 118
118 274
119 354
120 352
121 362
122 362
123 352
124 360
125 359
126 127
126 128
128 276
129 130
130 131
130 355
132 134
132 272
133 134
135 136
136 235
137 349
138 139
138 140
138 317
141 153
142 153
143 297
144 298
145 294
146 289
147 288
148 295
149 292
150 153
151 298
152 290
153 286
153 287
154 296
155 296
156 294
157 287
158 159
159 331
160 161
162 163
162 173
164 165
165 166
166 278
168 169
170 304
170 305
170 335
171 172
172 329
173 329
174 175
175 176
176 177
176 279
177 178
179 300
179 301
179 351
180 182
181 182
182 333
183 184
184 185
186 187
187 310
188 190
188 305
188 334
189 334
191 192
192 307
193 194
194 350
195 196
195 336
197 282
198 199
198 200
198 280
201 281
202 282
203 278
203 279
203 281
204 205
205 206
206 280
207 208
208 209
209 301
210 211
210 334
212 213
213 328
214 217
215 217
216 217
217 218
218 351
219 220
219 324
221 222
222 223
223 283
224 225
225 344
226 229
227 229
228 229
229 277
230 231
231 232
231 233
231 234
231 367
235 349
236 366
237 364
238 368
239 370
240 364
241 370
242 364
243 246
244 246
245 246
246 274
247 364
248 364
249 364
250 364
251 364
252 253
253 277
254 255
254 269
256 257
257 342
258 260
259 260
260 262
260 366
261 262
262 263
264 265
265 308
266 267
267 302
269 273
269 284
270 271
271 285
272 300
273 275
273 351
274 364
275 276
275 325
276 283
277 363
278 325
279 280
281 282
284 285
285 286
286 299
287 288
288 289
289 290
290 291
291 292
291 297
292 293
293 294
293 295
295 296
297 298
300 302
302 303
303 304
305 306
306 307
306 326
307 308
308 309
309 310
309 324
310 311
311 312
311 323
312 313
313 314
314 315
314 318
315 316
315 317
318 319
319 320
320 321
326 327
327 328
327 331
328 329
330 333
330 352
333 343
335 342
336 337
337 338
337 341
343 344
344 348
345 346
345 349
348 350
352 353
353 354
353 363
354 355
355 356
356 357
356 359
357 358
359 360
360 361
361 362
363 364
364 365
365 366
365 367
367 368
368 369
369 370
