# Chiroptera clade from the Open Tree of Life; 2909 nodes, 2908 edges; canonical sorted order
0 5
1 5
2 5
3 5
4 5
5 2474
6 7
7 9
8 9
9 10
9 11
9 2897
12 14
13 14
14 2561
15 16
15 2565
17 18
18 2264
19 20
19 434
21 31
22 31
23 31
24 31
25 2369
26 2369
27 31
28 2368
29 2368
30 31
31 32
31 2367
31 2368
31 2369
33 34
34 493
35 36
36 37
36 2882
38 39
39 1583
40 643
40 2709
41 42
42 2266
43 46
44 46
45 46
46 47
46 48
46 49
46 2781
50 51
51 2266
52 2239
53 2257
54 2226
55 2255
56 2242
57 2247
58 2257
59 2245
60 2248
61 2248
62 2254
63 2253
64 2255
65 2223
66 2223
67 2249
68 2249
69 2244
70 72
71 2233
72 2228
72 2229
73 2233
74 2231
75 2231
76 2229
77 2232
78 2244
79 2223
80 2247
81 2258
82 2243
83 2243
84 2238
85 2242
86 2240
87 2236
88 2246
89 2258
90 92
91 92
92 93
92 94
92 2627
95 97
96 97
97 98
97 99
97 2628
100 101
100 2115
102 2430
103 104
104 2417
104 2430
105 2430
106 108
107 108
108 2561
109 2878
110 2879
111 114
112 2879
113 114
114 115
114 116
114 2877
114 2878
117 118
118 2461
119 122
120 121
120 122
122 123
123 2360
124 125
125 2707
126 134
127 2323
128 134
129 134
130 2322
131 2323
132 2319
133 134
134 138
134 2316
134 2318
134 2323
135 2322
136 2321
137 2319
139 141
140 141
141 2554
142 143
143 144
143 2825
145 147
146 147
147 2432
148 149
149 151
149 2262
150 151
152 2185
153 2185
154 2185
155 2185
156 2185
157 2197
158 2185
159 2185
160 2185
161 2185
162 2194
163 2185
164 2197
165 2186
166 2185
167 2191
168 2185
169 2188
170 2187
171 175
172 175
173 175
174 175
175 2192
176 2192
177 2185
178 2185
179 2185
180 2185
181 2789
182 2809
183 2809
184 2789
185 2822
186 2789
187 2807
188 2789
189 2149
190 848
191 193
192 193
193 194
193 2205
195 2285
196 2286
197 198
197 201
197 2283
197 2284
199 2285
200 2286
202 203
203 2563
204 2118
204 2449
204 2709
204 2908
205 208
206 208
207 208
208 209
208 2371
210 211
211 2375
212 213
213 2355
214 215
215 216
215 2769
217 218
217 2631
219 220
220 221
220 2628
222 224
223 224
224 225
224 2404
226 227
227 2425
228 2874
229 230
229 2873
229 2874
231 233
232 233
233 234
233 235
233 2874
236 237
236 2704
237 238
239 240
239 2259
241 242
242 2161
243 245
244 245
245 248
245 2160
245 2161
246 247
247 2161
249 256
250 2569
251 2571
252 256
253 256
254 256
255 256
256 257
256 2568
256 2569
258 2571
259 260
260 2426
261 2898
262 2892
263 264
264 2893
265 2898
266 2254
267 2250
268 2256
269 271
270 271
271 2520
272 286
272 2215
272 2376
273 274
274 275
274 2376
276 277
276 2376
278 2429
279 282
280 2429
281 282
282 2426
282 2428
283 2428
284 286
285 286
287 298
288 298
289 298
290 298
291 298
292 298
293 298
294 2457
295 298
296 298
297 2456
298 300
298 2454
298 2456
299 2458
301 2459
302 2459
303 304
304 1444
305 306
306 307
306 308
306 309
306 310
306 2556
311 312
312 2222
313 315
314 315
315 2465
316 2413
317 2405
318 2409
319 2408
320 2403
321 2403
322 2413
323 2403
324 2410
325 326
325 2412
327 2409
328 2405
329 2024
329 2026
329 2027
329 2029
329 2030
329 2032
329 2036
329 2037
329 2038
329 2401
329 2402
329 2435
330 2402
330 2403
330 2414
331 2553
332 334
332 2528
332 2553
333 2553
335 2535
336 2535
337 2535
338 2535
339 2535
340 2538
341 2535
342 2538
343 2535
344 2536
345 2535
346 2535
347 2536
348 2535
349 2535
350 353
351 353
352 353
353 2533
354 2754
355 2772
356 2765
357 2768
358 2768
359 2766
360 2765
361 2767
362 2762
363 2760
364 2761
365 2754
366 2754
367 2762
368 2758
369 2772
370 2754
371 372
372 373
372 2764
374 2754
375 377
376 377
377 2763
378 2754
379 2754
380 2754
381 2754
382 385
383 385
384 385
385 2784
386 2771
387 2754
388 2754
389 2812
390 2811
391 393
392 393
393 394
393 395
393 396
393 397
393 2770
398 2754
399 2754
400 2812
401 402
402 403
402 1434
404 405
405 2872
406 407
406 754
408 409
409 2852
410 2171
411 2174
412 413
413 2167
414 423
415 423
416 2173
417 423
418 2172
419 420
420 2172
421 2175
422 2174
423 426
423 2157
423 2167
423 2175
424 2175
425 2169
427 2173
428 2171
429 432
430 432
431 432
432 433
432 2115
434 438
434 2399
435 438
436 438
437 438
439 442
440 442
441 442
442 2347
443 456
444 456
445 456
446 456
447 2780
448 456
449 2779
450 456
451 2780
452 456
453 456
454 456
455 456
456 457
456 458
456 2777
456 2778
459 2778
460 464
461 464
462 464
463 464
464 465
464 2830
466 2366
467 2365
468 2365
469 2366
470 471
470 2363
470 2364
472 474
473 474
474 475
474 2317
476 477
477 2566
478 481
479 481
480 481
481 2166
482 484
483 484
484 2782
485 486
486 487
486 2461
488 2777
489 2776
490 2776
491 2776
492 2776
493 494
493 495
493 496
493 497
493 499
493 503
493 510
493 514
493 518
493 520
493 522
493 523
493 525
493 527
493 528
493 530
493 535
493 537
493 538
493 546
493 547
493 548
493 549
493 553
493 554
493 555
493 560
493 561
493 562
493 563
493 564
493 565
493 566
493 567
493 569
493 570
493 580
493 581
493 583
493 584
493 585
493 586
493 588
493 592
493 593
493 743
493 2580
493 2581
498 557
500 557
501 2599
502 2606
504 505
505 506
505 2615
507 2623
508 509
509 2600
511 2608
512 2600
513 2624
515 516
515 2609
517 2588
519 2591
521 2595
524 2584
526 2591
529 2625
531 532
532 2613
533 2614
534 2602
536 2603
539 2607
540 2605
541 2589
542 2625
543 557
544 2621
545 2604
550 2598
551 2597
552 557
556 557
557 2620
558 2615
559 2618
568 2624
571 2614
572 573
573 2599
574 2617
575 2590
576 2605
577 2597
578 2609
579 2618
582 2598
587 2623
589 590
589 591
589 2616
594 601
595 601
596 601
597 601
598 601
599 601
600 601
601 602
601 2759
603 605
604 605
605 606
605 607
605 720
608 609
608 2370
610 612
611 612
612 2532
613 2819
614 632
615 632
616 632
617 2813
618 632
619 632
620 2814
621 632
622 632
623 632
624 632
625 632
626 632
627 632
628 632
629 632
630 632
631 632
632 634
632 639
632 2806
632 2813
633 2815
635 2819
636 2817
637 2816
638 2817
640 641
641 2774
642 643
644 645
644 2872
646 665
647 665
648 665
649 665
650 665
651 665
652 665
653 665
654 665
655 665
656 2313
657 2460
658 2373
659 665
660 665
661 2601
662 2460
663 665
664 665
665 667
665 668
665 670
665 2119
665 2183
666 2601
669 2183
671 2373
672 2235
673 676
674 676
675 2795
676 2794
676 2795
677 2795
678 679
679 2783
680 681
680 682
680 686
680 687
680 688
680 689
680 690
680 691
680 693
680 2893
680 2894
683 684
684 2894
685 2895
692 2895
694 695
694 2559
696 697
697 754
698 700
699 700
700 701
700 2363
702 703
703 2372
704 705
704 2331
706 2325
707 2326
708 2325
709 2332
710 2325
711 2327
712 2332
713 2325
714 2325
715 2329
716 2325
717 2325
718 2325
719 2327
720 2116
720 2218
720 2325
721 2357
722 727
723 2357
724 727
725 727
726 727
727 2335
727 2357
728 732
728 736
728 2341
728 2342
728 2344
729 2343
730 2343
731 2344
733 2342
734 735
735 2344
737 738
737 2707
739 741
740 741
741 742
741 2452
743 744
745 746
746 2353
747 748
748 749
748 1444
750 1583
750 2449
751 2706
752 754
753 754
754 2703
754 2706
755 2576
756 2576
757 2575
758 2574
759 760
760 761
760 996
762 2521
763 2523
764 2522
765 2525
766 767
767 2520
767 2521
768 769
768 2525
770 771
770 2289
772 2377
773 2382
774 2384
775 2384
776 2387
777 2381
778 2380
779 2388
780 2384
781 2388
782 2379
783 2317
784 2214
785 2380
786 2387
787 2214
788 789
789 790
789 2537
791 792
792 2115
793 795
794 795
795 2338
796 828
796 2115
797 828
798 2132
799 2133
800 828
801 2140
802 828
803 828
804 828
805 828
806 2136
807 2145
808 2145
809 2127
810 2135
811 812
812 2125
813 2121
814 2139
815 828
816 2144
817 828
818 2134
819 2130
820 2140
821 2136
822 828
823 824
824 2123
825 2133
826 2148
827 2147
828 829
828 833
828 838
828 839
828 2120
828 2142
830 2130
831 2141
832 2138
834 2146
835 2148
836 2142
837 2142
840 2135
841 2132
842 2131
843 2131
844 2121
845 2141
846 847
847 2462
848 1506
848 2049
848 2149
848 2715
849 2159
850 2160
851 2162
852 2162
853 2152
854 2152
855 2152
856 2152
857 2152
858 2178
859 860
860 2152
861 2152
862 2152
863 2152
864 866
865 866
866 867
866 2177
868 2152
869 2178
870 2152
871 2152
872 2152
873 2152
874 875
874 876
874 2362
877 2185
878 2194
879 2185
880 2195
881 2185
882 2185
883 2195
884 2196
885 2187
886 2185
887 2185
888 2185
889 2185
890 2185
891 2185
892 2185
893 2185
894 897
894 1571
894 2213
895 897
896 897
898 2150
899 2150
900 2179
901 2150
902 2150
903 2150
904 2150
905 2155
906 2163
907 2150
908 2150
909 2150
910 2150
911 2150
912 2150
913 2150
914 2182
915 2150
916 917
917 2416
918 2773
919 2773
920 2773
921 2773
922 2773
923 2773
924 2773
925 2773
926 2773
927 2773
928 2773
929 2782
930 2773
931 2773
932 2773
933 2773
934 2773
935 2821
936 2773
937 2773
938 2773
939 2773
940 2773
941 942
942 2854
943 2773
944 2773
945 2868
946 2184
947 2773
948 2773
949 2773
950 2773
951 2773
952 2773
953 2773
954 2839
955 2805
956 2853
957 2773
958 2773
959 2823
960 2773
961 2854
962 2773
963 2786
964 2876
965 2773
966 967
966 2890
968 2773
969 2836
970 2773
971 2876
972 2773
973 2773
974 2805
975 2827
976 2868
977 2773
978 2773
979 2831
980 2773
981 2896
982 2773
983 2773
984 2773
985 2773
986 2773
987 2184
988 2823
989 2773
990 2891
991 2839
992 2896
993 2773
994 995
995 2375
996 1003
996 2531
997 1003
998 999
998 1000
998 2544
1001 2542
1002 2544
1003 2542
1003 2543
1004 2543
1005 2542
1006 1007
1007 1008
1007 1009
1007 2181
1010 2826
1011 2826
1012 2826
1013 2826
1014 2826
1015 2826
1016 2826
1017 2826
1018 2826
1019 2826
1020 2826
1021 2826
1022 2826
1023 2826
1024 2826
1025 1026
1026 1027
1026 1028
1026 2356
1029 2826
1030 2826
1031 2826
1032 2730
1033 2320
1034 2464
1035 2826
1036 2699
1037 2519
1038 2826
1039 2389
1040 2826
1041 2727
1042 2481
1043 2455
1044 2746
1045 2826
1046 2733
1047 2826
1048 2658
1049 2629
1050 2629
1051 2630
1052 1053
1053 2700
1054 1055
1055 2552
1056 1057
1057 2713
1058 2826
1059 2738
1060 2500
1061 2826
1062 2826
1063 2826
1064 2826
1065 2826
1066 2826
1067 2826
1068 2826
1069 1070
1070 2852
1071 2564
1072 2638
1073 2826
1074 2826
1075 2826
1076 2826
1077 2732
1078 2541
1079 2737
1080 2826
1081 2826
1082 2826
1083 2448
1084 1086
1085 1086
1086 2655
1087 2514
1088 2826
1089 2826
1090 2826
1091 2826
1092 2725
1093 2721
1094 2711
1095 1097
1096 1097
1097 2570
1098 1099
1099 2743
1100 2826
1101 2374
1102 2826
1103 2710
1104 2702
1105 2716
1106 2668
1107 2826
1108 2389
1109 2699
1110 2750
1111 2733
1112 2826
1113 2750
1114 2826
1115 2423
1116 2826
1117 1119
1118 1119
1119 2415
1120 2826
1121 2826
1122 2826
1123 2464
1124 2826
1125 2826
1126 2826
1127 2718
1128 2744
1129 2826
1130 2524
1131 2826
1132 2738
1133 2731
1134 2524
1135 2741
1136 2745
1137 2740
1138 2745
1139 2354
1140 2427
1141 2427
1142 1143
1143 2726
1144 2826
1145 2826
1146 2826
1147 2826
1148 2394
1149 2826
1150 1151
1151 2481
1152 1153
1153 2622
1154 2749
1155 1157
1156 1157
1157 2545
1158 1159
1159 2729
1160 2826
1161 2826
1162 2729
1163 2455
1164 2826
1165 2826
1166 2630
1167 1168
1168 2731
1169 2826
1170 2826
1171 2564
1172 2374
1173 2826
1174 2514
1175 2748
1176 2826
1177 2400
1178 2638
1179 2826
1180 2356
1181 2411
1182 2826
1183 2826
1184 2826
1185 2721
1186 2406
1187 2719
1188 2826
1189 2573
1190 2708
1191 2826
1192 2826
1193 2746
1194 2668
1195 1196
1196 2514
1197 2720
1198 2747
1199 2826
1200 2826
1201 2744
1202 2711
1203 2573
1204 2734
1205 2722
1206 2748
1207 2702
1208 2701
1209 2400
1210 2826
1211 2734
1212 2826
1213 1214
1213 1215
1213 1216
1213 1217
1217 2211
1218 1219
1219 1220
1219 1221
1221 2210
1222 1223
1222 2534
1224 1337
1224 2205
1224 2440
1225 1230
1226 2207
1227 1230
1228 1230
1229 2207
1230 1231
1230 1232
1230 2205
1230 2206
1233 1234
1234 2208
1235 2208
1236 1237
1236 1444
1238 1239
1239 1583
1240 2792
1241 2792
1242 2792
1243 2792
1244 2800
1245 2794
1246 2792
1247 2792
1248 2792
1249 2792
1250 2792
1251 2792
1252 2792
1253 2797
1254 2798
1255 2792
1256 2800
1257 2793
1258 2792
1259 2799
1260 2792
1261 1262
1261 2115
1263 1268
1264 1268
1265 1268
1266 1268
1267 1268
1268 1269
1269 2399
1270 1272
1271 1272
1272 1583
1273 1285
1274 1285
1275 1285
1276 2848
1277 2850
1278 1285
1279 1285
1280 2848
1281 1282
1281 2850
1283 1285
1284 2847
1285 1287
1285 2840
1285 2847
1285 2849
1286 2851
1288 2851
1289 1322
1289 2401
1290 1322
1291 1322
1292 1322
1293 1322
1294 1322
1295 1322
1296 1322
1297 1322
1298 1322
1299 1322
1300 1322
1301 1322
1302 1322
1303 1322
1304 1322
1305 1322
1306 1322
1307 1322
1308 1322
1309 1322
1310 2444
1311 1322
1312 1322
1313 1322
1314 2444
1315 2446
1316 1322
1317 2445
1318 2442
1319 1322
1320 1322
1321 1322
1322 1323
1322 1324
1322 1327
1322 1328
1322 1329
1322 2442
1322 2446
1325 2446
1326 2445
1330 1331
1330 2804
1332 1335
1333 1335
1334 1335
1335 2783
1336 1337
1338 1350
1339 1340
1339 2468
1341 2471
1342 2470
1343 1350
1344 1350
1345 1350
1346 2470
1347 1350
1348 1350
1349 1350
1350 1351
1350 1353
1350 2466
1350 2467
1352 2471
1354 2469
1355 2164
1356 2165
1357 2165
1358 1359
1359 2163
1359 2164
1360 2822
1361 2789
1362 2789
1363 2789
1364 2789
1365 2810
1366 2810
1367 2789
1368 2789
1369 2789
1370 2789
1371 2789
1372 2789
1373 2789
1374 2789
1375 2789
1376 2789
1377 2789
1378 1380
1378 2709
1379 1380
1381 2201
1382 1387
1383 1387
1384 1387
1385 2200
1386 2200
1387 1388
1387 1389
1387 2153
1387 2200
1387 2201
1390 2201
1391 1393
1392 1393
1393 2873
1394 1396
1395 1396
1396 2566
1397 1400
1398 1400
1399 1400
1400 2804
1401 1402
1401 1403
1401 2466
1404 1405
1405 2880
1406 1408
1407 1408
1408 1409
1408 2632
1410 1411
1411 2563
1412 1413
1412 2880
1414 2421
1415 2425
1416 2422
1417 2419
1418 2424
1419 2424
1420 2422
1421 1422
1422 2115
1423 1424
1424 2824
1425 1428
1426 1428
1427 1428
1428 1429
1428 2119
1430 1431
1430 1432
1430 1433
1430 2347
1434 1438
1434 2360
1435 1438
1436 1438
1437 2361
1438 2361
1439 2361
1440 1441
1440 1442
1440 1443
1440 2265
1444 1897
1444 2213
1444 2214
1445 2351
1446 2349
1447 2350
1448 2350
1449 2340
1450 2829
1451 2829
1452 2829
1453 2835
1454 2829
1455 2829
1456 2829
1457 2829
1458 2829
1459 2829
1460 2829
1461 2829
1462 2829
1463 2830
1464 2829
1465 2829
1466 2829
1467 2837
1468 2844
1469 2829
1470 2829
1471 2829
1472 2846
1473 2842
1474 2829
1475 2829
1476 1477
1477 2837
1478 1480
1479 1480
1480 2843
1481 2844
1482 2829
1483 2829
1484 2829
1485 2838
1486 2829
1487 2834
1488 2829
1489 2845
1490 2829
1491 2846
1492 2829
1493 2829
1494 2829
1495 2829
1496 2829
1497 2829
1498 2832
1499 2829
1500 2829
1501 2835
1502 2829
1503 2829
1504 1505
1505 2330
1506 1507
1508 2279
1509 2275
1510 2272
1511 2276
1512 2270
1513 2270
1514 2270
1515 2270
1516 1517
1517 2281
1518 2276
1519 2278
1520 1521
1521 2282
1522 2278
1523 2280
1524 2281
1525 2270
1526 2279
1527 1542
1528 2866
1529 1530
1530 2860
1531 2859
1532 2862
1533 1542
1534 2859
1535 1542
1536 2862
1537 2867
1538 1539
1539 2869
1540 1542
1541 2867
1542 1543
1542 1546
1542 1550
1542 2857
1542 2858
1542 2864
1544 2870
1545 2865
1547 1548
1548 2861
1549 2870
1551 1552
1552 1583
1553 1556
1554 1556
1555 1556
1556 2176
1557 2574
1558 2567
1559 1562
1560 1562
1561 1562
1562 1563
1562 1564
1562 2462
1565 1571
1566 1567
1567 2393
1568 1571
1569 2393
1570 2396
1571 2390
1571 2392
1572 1575
1573 1575
1574 1575
1575 1576
1575 2391
1577 1578
1577 2395
1579 2391
1580 2396
1581 2390
1582 1583
1583 2450
1583 2526
1584 1589
1584 1592
1584 1593
1584 1594
1584 1595
1584 1598
1584 1601
1584 1604
1584 1605
1584 1606
1584 1608
1584 1610
1584 1612
1584 1613
1584 1614
1584 1617
1584 1622
1584 1624
1584 1626
1584 1630
1584 1635
1584 1636
1584 1637
1584 1640
1584 1642
1584 1645
1584 1654
1584 1656
1584 1657
1584 1659
1584 2474
1584 2475
1584 2515
1585 1586
1586 2493
1587 2508
1588 2485
1590 1591
1591 2497
1596 1597
1597 2494
1599 2499
1600 2485
1602 1603
1603 2503
1607 2512
1609 2487
1611 2486
1615 2513
1616 2476
1618 2512
1619 2515
1620 2518
1621 2490
1623 1624
1625 2516
1627 2484
1628 2510
1629 2496
1631 2480
1632 2517
1633 1634
1633 2491
1638 2489
1639 2479
1641 2503
1643 1644
1644 2499
1646 2504
1647 2507
1648 1649
1649 2498
1650 2475
1651 2509
1652 2510
1653 2487
1655 2476
1658 2492
1660 2493
1661 2505
1662 2495
1663 2513
1664 2518
1665 2491
1666 1667
1667 2264
1668 1669
1668 2578
1669 1794
1670 1794
1671 1794
1672 1794
1673 1794
1674 1794
1675 1794
1676 1794
1677 1794
1678 1794
1679 1794
1680 1794
1681 1794
1682 1794
1683 1794
1684 1794
1685 1794
1686 1794
1687 1794
1688 1794
1689 1794
1690 1794
1691 1794
1692 1794
1693 1794
1694 1794
1695 1794
1696 1794
1697 1794
1698 1794
1699 1794
1700 1794
1701 1794
1702 1794
1703 1794
1704 1794
1705 2692
1706 1794
1707 2677
1708 1794
1709 2689
1710 2659
1711 1794
1712 2696
1713 1794
1714 2663
1715 1794
1716 2656
1717 2686
1718 1794
1719 2681
1720 1794
1721 2644
1722 2679
1723 1794
1724 1794
1725 2677
1726 1794
1727 2654
1728 2690
1729 1794
1730 1794
1731 1794
1732 2669
1733 2694
1734 1737
1735 1737
1736 1737
1737 2653
1738 1794
1739 2645
1740 2652
1741 2657
1742 2693
1743 1745
1744 1745
1745 1746
1745 1747
1745 2654
1748 2660
1749 1794
1750 2651
1751 1794
1752 1794
1753 1794
1754 2653
1755 1794
1756 1794
1757 2640
1758 1794
1759 1794
1760 1794
1761 1794
1762 2696
1763 1794
1764 1794
1765 2659
1766 1767
1767 2665
1768 1794
1769 1794
1770 2663
1771 1794
1772 2650
1773 1775
1774 1775
1775 2676
1776 1794
1777 1794
1778 2673
1779 2674
1780 1794
1781 1794
1782 2682
1783 2657
1784 1794
1785 1794
1786 2667
1787 1794
1788 1794
1789 1794
1790 1794
1791 1794
1792 1794
1793 1794
1794 1798
1794 1800
1794 1804
1794 1808
1794 1810
1794 1811
1794 1814
1794 1816
1794 1820
1794 1822
1794 1825
1794 1826
1794 1829
1794 1831
1794 1833
1794 1835
1794 2635
1795 2675
1796 2688
1797 2670
1799 2680
1801 2670
1802 2667
1803 2686
1805 2678
1806 1807
1806 2684
1809 2650
1812 2661
1813 2692
1815 2676
1817 2646
1818 1819
1818 2687
1821 2692
1823 2695
1824 2646
1827 2684
1828 2662
1830 2682
1832 2647
1834 2687
1836 1837
1837 2580
1838 2315
1839 2315
1840 1841
1840 2220
1840 2315
1842 1851
1843 1844
1844 1851
1845 1851
1846 1849
1847 1849
1848 1849
1849 2705
1850 2705
1851 1852
1851 2705
1852 2704
1853 2881
1854 2889
1855 2881
1856 2881
1857 2887
1858 2883
1859 2881
1860 2886
1861 2881
1862 2881
1863 2885
1864 2885
1865 2889
1866 2888
1867 1868
1868 2431
1869 1870
1870 1871
1870 2548
1872 2551
1873 2529
1874 2530
1875 2529
1876 2547
1877 2529
1878 2549
1879 2549
1880 2551
1881 2529
1882 2435
1883 2435
1884 2435
1885 2435
1886 2436
1887 1892
1888 2433
1889 2434
1890 2434
1891 2433
1892 1893
1892 2432
1892 2433
1892 2434
1894 1895
1894 2199
1896 1897
1898 1899
1898 2115
1900 1905
1901 1905
1902 1905
1903 1905
1904 1905
1905 1906
1905 2828
1907 1908
1908 2774
1909 1911
1910 1911
1911 1913
1911 2554
1912 1913
1914 1924
1915 1924
1916 1924
1917 1924
1918 1924
1919 1924
1920 1937
1921 1937
1922 2905
1923 1937
1924 1937
1925 1937
1926 2906
1927 1937
1928 2900
1929 1937
1930 2903
1931 1937
1932 2907
1933 1937
1934 2906
1935 1937
1936 2899
1937 1940
1937 1941
1937 1944
1937 2751
1937 2899
1938 2903
1939 2907
1942 1943
1943 2904
1945 1949
1946 1949
1947 1949
1948 1949
1949 1950
1949 2115
1951 1952
1952 2115
1953 1954
1954 2557
1955 1956
1955 2263
1957 1958
1958 1959
1958 2265
1960 1988
1960 2220
1960 2221
1961 2295
1962 2304
1963 1965
1964 1965
1965 1988
1966 2307
1967 2293
1968 2314
1969 1988
1970 2303
1971 2298
1972 2302
1973 2296
1974 2305
1975 1976
1975 2312
1977 2298
1978 2311
1979 2312
1980 2310
1981 2309
1982 2311
1983 2304
1984 1988
1985 2305
1986 2292
1987 2297
1988 1991
1988 1992
1988 2292
1989 2314
1990 2301
1993 2299
1994 1995
1995 1996
1995 2473
1997 1998
1998 2320
1999 2003
2000 2003
2001 2003
2002 2003
2003 2452
2004 2199
2005 2151
2006 2151
2007 2151
2008 2012
2009 2012
2010 2012
2011 2012
2012 2198
2013 2151
2014 2203
2015 2204
2016 2151
2017 2151
2018 2151
2019 2151
2020 2151
2021 2151
2022 2204
2023 2151
2025 2441
2028 2439
2031 2437
2033 2402
2034 2441
2035 2438
2039 2040
2040 2041
2040 2558
2042 2045
2043 2045
2044 2398
2045 2047
2045 2048
2045 2398
2046 2398
2048 2397
2049 2050
2051 2053
2052 2053
2053 2054
2053 2351
2055 2059
2056 2059
2057 2059
2058 2059
2059 2353
2060 2634
2061 2063
2062 2063
2063 2064
2063 2632
2063 2633
2065 2634
2066 2633
2067 2069
2068 2069
2069 2070
2069 2071
2069 2072
2069 2073
2069 2074
2069 2825
2075 2080
2076 2080
2077 2080
2078 2080
2079 2080
2080 2267
2081 2287
2082 2288
2083 2268
2084 2290
2085 2288
2086 2291
2087 2268
2088 2291
2089 2091
2090 2091
2091 2282
2092 2093
2092 2355
2094 2754
2095 2754
2096 2754
2097 2754
2098 2754
2099 2754
2100 2111
2101 2111
2102 2111
2103 2111
2104 2111
2105 2111
2106 2111
2107 2111
2108 2111
2109 2111
2110 2111
2111 2112
2111 2113
2111 2114
2111 2787
2115 2715
2115 2769
2116 2117
2118 2209
2118 2440
2119 2875
2120 2121
2120 2137
2121 2122
2122 2123
2122 2136
2123 2124
2124 2125
2124 2134
2125 2126
2126 2127
2126 2133
2127 2128
2128 2129
2128 2132
2129 2130
2129 2131
2134 2135
2137 2138
2137 2141
2138 2139
2139 2140
2142 2143
2143 2144
2143 2146
2144 2145
2146 2147
2147 2148
2149 2150
2150 2151
2151 2152
2151 2203
2152 2153
2153 2154
2154 2155
2154 2179
2155 2156
2156 2157
2156 2176
2157 2158
2158 2159
2158 2163
2159 2160
2159 2162
2164 2165
2166 2184
2166 2773
2167 2168
2168 2169
2168 2174
2169 2170
2170 2171
2170 2173
2171 2172
2176 2177
2177 2178
2179 2180
2180 2181
2180 2198
2181 2182
2182 2185
2183 2202
2185 2186
2185 2188
2186 2187
2188 2189
2189 2190
2189 2196
2190 2191
2190 2193
2191 2192
2193 2194
2193 2195
2196 2197
2198 2199
2202 2235
2202 2601
2203 2204
2206 2207
2206 2208
2209 2210
2209 2401
2210 2211
2211 2212
2212 2213
2212 2397
2214 2215
2214 2377
2215 2216
2216 2217
2216 2358
2217 2218
2217 2335
2218 2219
2219 2220
2219 2316
2221 2222
2221 2267
2222 2223
2223 2224
2224 2225
2224 2259
2225 2226
2225 2250
2226 2227
2226 2249
2227 2228
2227 2248
2228 2234
2229 2230
2230 2231
2230 2232
2232 2233
2234 2236
2234 2245
2235 2277
2236 2237
2237 2238
2237 2244
2238 2239
2239 2240
2240 2241
2241 2242
2241 2243
2245 2246
2246 2247
2250 2251
2251 2252
2251 2258
2252 2253
2252 2256
2253 2254
2253 2255
2256 2257
2259 2260
2260 2261
2260 2266
2261 2262
2261 2265
2262 2263
2263 2264
2267 2268
2268 2269
2268 2289
2269 2270
2269 2283
2270 2271
2270 2282
2271 2272
2271 2280
2272 2273
2273 2274
2273 2279
2274 2275
2274 2278
2275 2276
2277 2313
2277 2460
2280 2281
2283 2287
2284 2285
2284 2286
2287 2288
2289 2290
2290 2291
2292 2293
2293 2294
2294 2295
2294 2306
2295 2296
2295 2299
2296 2297
2297 2298
2299 2300
2300 2301
2300 2305
2301 2302
2302 2303
2303 2304
2306 2307
2306 2314
2307 2308
2308 2309
2308 2312
2309 2310
2310 2311
2313 2373
2316 2317
2318 2319
2318 2321
2320 2324
2320 2826
2321 2322
2324 2328
2324 2712
2325 2326
2325 2329
2326 2327
2328 2333
2328 2697
2329 2330
2330 2331
2331 2332
2333 2334
2333 2539
2334 2339
2334 2500
2335 2336
2336 2337
2336 2355
2337 2338
2337 2353
2338 2340
2339 2345
2339 2447
2340 2341
2340 2351
2341 2346
2342 2343
2345 2348
2345 2406
2346 2347
2346 2349
2348 2352
2348 2385
2349 2350
2352 2354
2352 2374
2354 2356
2358 2359
2358 2367
2359 2360
2359 2362
2362 2363
2364 2365
2364 2366
2367 2370
2370 2371
2371 2372
2372 2375
2377 2378
2378 2379
2378 2381
2379 2380
2381 2382
2382 2383
2383 2384
2383 2386
2385 2389
2385 2394
2386 2387
2386 2388
2390 2391
2392 2393
2392 2395
2394 2400
2395 2396
2397 2399
2403 2404
2403 2407
2404 2405
2406 2411
2407 2408
2407 2410
2408 2409
2410 2412
2411 2415
2412 2413
2414 2416
2414 2431
2415 2423
2416 2417
2417 2418
2418 2419
2418 2426
2419 2420
2419 2425
2420 2421
2420 2424
2421 2422
2423 2427
2428 2429
2431 2432
2435 2436
2436 2437
2437 2438
2438 2439
2439 2441
2440 2715
2442 2443
2443 2444
2443 2445
2447 2448
2447 2481
2448 2453
2449 2577
2450 2451
2450 2462
2451 2452
2451 2454
2453 2455
2453 2464
2454 2461
2456 2457
2457 2458
2458 2459
2462 2463
2463 2465
2463 2472
2465 2466
2467 2468
2467 2471
2468 2469
2469 2470
2472 2473
2472 2520
2473 2474
2475 2476
2476 2477
2477 2478
2477 2501
2478 2479
2478 2494
2479 2480
2480 2482
2482 2483
2482 2488
2483 2484
2483 2486
2484 2485
2486 2487
2488 2489
2488 2492
2489 2490
2490 2491
2492 2493
2494 2495
2495 2496
2496 2497
2497 2498
2498 2499
2500 2511
2501 2502
2501 2513
2502 2503
2502 2504
2504 2505
2505 2506
2506 2507
2506 2512
2507 2508
2508 2509
2509 2510
2511 2514
2511 2519
2515 2516
2516 2517
2517 2518
2519 2524
2521 2522
2522 2523
2523 2525
2526 2527
2526 2555
2527 2528
2527 2554
2528 2529
2529 2530
2529 2546
2530 2531
2531 2532
2532 2533
2533 2534
2534 2535
2535 2536
2535 2537
2537 2538
2539 2540
2539 2655
2540 2541
2540 2619
2541 2545
2543 2544
2545 2550
2546 2547
2546 2551
2547 2548
2548 2549
2550 2552
2550 2570
2552 2564
2555 2556
2555 2567
2556 2557
2557 2558
2558 2559
2559 2560
2560 2561
2560 2562
2562 2563
2562 2565
2565 2566
2567 2568
2568 2572
2569 2571
2570 2573
2572 2574
2572 2575
2575 2576
2577 2578
2577 2703
2578 2579
2579 2580
2579 2631
2581 2582
2581 2627
2582 2583
2582 2625
2583 2584
2583 2624
2584 2585
2585 2586
2585 2610
2586 2587
2586 2606
2587 2588
2587 2592
2588 2589
2589 2590
2590 2591
2592 2593
2592 2602
2593 2594
2593 2600
2594 2595
2594 2599
2595 2596
2596 2597
2596 2598
2602 2603
2603 2604
2604 2605
2606 2607
2607 2608
2608 2609
2610 2611
2610 2620
2611 2612
2611 2616
2612 2613
2612 2615
2613 2614
2616 2617
2617 2618
2619 2622
2619 2638
2620 2621
2621 2623
2622 2626
2626 2629
2626 2630
2627 2628
2631 2632
2633 2634
2635 2636
2635 2688
2636 2637
2636 2683
2637 2639
2637 2664
2639 2640
2639 2660
2640 2641
2641 2642
2641 2659
2642 2643
2642 2656
2643 2644
2643 2647
2644 2645
2645 2646
2647 2648
2648 2649
2648 2654
2649 2650
2649 2651
2651 2652
2652 2653
2655 2658
2656 2657
2658 2668
2660 2661
2661 2662
2662 2663
2664 2665
2664 2671
2665 2666
2666 2667
2666 2669
2669 2670
2671 2672
2671 2678
2672 2673
2672 2677
2673 2674
2674 2675
2675 2676
2678 2679
2679 2680
2680 2681
2681 2682
2683 2684
2683 2685
2685 2686
2685 2687
2688 2689
2689 2690
2690 2691
2691 2692
2691 2693
2693 2694
2694 2695
2695 2696
2697 2698
2697 2708
2698 2699
2698 2700
2700 2701
2701 2702
2703 2704
2706 2707
2708 2710
2710 2711
2712 2713
2712 2749
2713 2714
2714 2716
2714 2735
2716 2717
2717 2718
2717 2722
2718 2719
2719 2720
2720 2721
2722 2723
2723 2724
2723 2734
2724 2725
2724 2732
2725 2726
2726 2727
2727 2728
2728 2729
2728 2730
2730 2731
2732 2733
2735 2736
2735 2747
2736 2737
2736 2739
2737 2738
2739 2740
2739 2746
2740 2741
2741 2742
2742 2743
2742 2745
2743 2744
2747 2748
2749 2750
2751 2752
2751 2802
2752 2753
2752 2892
2753 2754
2753 2855
2754 2755
2754 2784
2755 2756
2755 2775
2756 2757
2756 2774
2757 2758
2757 2763
2758 2759
2759 2760
2760 2761
2761 2762
2763 2764
2764 2765
2765 2766
2766 2767
2766 2770
2767 2768
2769 2802
2770 2771
2771 2772
2773 2782
2773 2875
2775 2776
2775 2781
2776 2777
2778 2779
2779 2780
2781 2783
2782 2786
2784 2785
2785 2787
2785 2828
2786 2796
2787 2788
2788 2789
2788 2824
2789 2790
2789 2822
2790 2791
2790 2806
2791 2792
2791 2804
2792 2793
2792 2797
2793 2794
2796 2801
2796 2890
2797 2798
2798 2799
2799 2800
2801 2803
2801 2863
2802 2826
2803 2805
2803 2818
2806 2807
2807 2808
2807 2811
2808 2809
2808 2810
2811 2812
2813 2814
2814 2815
2815 2816
2815 2819
2816 2817
2818 2820
2818 2853
2820 2821
2820 2827
2821 2823
2824 2825
2826 2852
2827 2831
2828 2829
2829 2830
2829 2838
2830 2832
2831 2836
2832 2833
2833 2834
2833 2837
2834 2835
2836 2839
2838 2840
2840 2841
2841 2842
2841 2845
2842 2843
2843 2844
2845 2846
2847 2848
2849 2850
2849 2851
2852 2875
2853 2854
2855 2856
2855 2881
2856 2857
2856 2877
2857 2871
2858 2859
2858 2860
2860 2861
2861 2862
2863 2868
2863 2876
2864 2865
2864 2869
2865 2866
2866 2867
2869 2870
2871 2872
2871 2873
2877 2880
2878 2879
2881 2882
2882 2883
2883 2884
2884 2885
2884 2886
2886 2887
2887 2888
2888 2889
2890 2891
2891 2896
2892 2893
2892 2897
2894 2895
2897 2898
2899 2900
2900 2901
2901 2902
2901 2907
2902 2903
2902 2904
2904 2905
2905 2906
