# Cichlidae clade from the Open Tree of Life; 3134 nodes, 3133 edges; canonical sorted order
0 1
1 2934
2 3
3 4
4 2583
5 6
6 7
6 8
6 9
9 2832
10 2851
11 26
12 2868
13 2871
14 2867
15 2851
16 2872
17 2871
18 2870
19 2851
20 2872
21 2851
22 2855
23 2851
24 2874
25 2851
26 2867
27 2869
28 2851
29 1655
29 1663
29 1670
29 1679
29 2483
30 33
31 33
32 33
33 34
33 35
33 2934
36 39
37 39
38 39
39 3068
40 2757
41 2757
42 2757
43 2757
44 2766
45 2757
46 2764
47 2763
48 2766
49 2789
50 2763
51 2765
52 2684
53 2684
54 2684
55 2684
56 2684
57 2684
58 2684
59 2684
60 2684
61 2684
62 2684
63 2684
64 2684
65 2684
66 2684
67 2684
68 2684
69 2684
70 2684
71 2684
72 2684
73 2684
74 2684
75 2684
76 2684
77 2684
78 2684
79 2684
80 2684
81 2684
82 2776
83 2778
84 2792
85 2780
86 2776
87 2780
88 2781
89 2772
90 2795
91 2782
92 2783
93 2741
94 2684
95 2774
96 2781
97 2684
98 2684
99 2782
100 2778
101 2834
102 2834
103 2834
104 2839
105 2834
106 2834
107 2834
108 2836
109 2836
110 2835
111 2841
112 2839
113 2840
114 115
114 1185
116 2545
117 2545
118 2545
119 2545
120 2545
121 2545
122 2545
123 2545
124 2545
125 2545
126 2545
127 2545
128 2545
129 2545
130 2545
131 2545
132 2545
133 2545
134 2545
135 2545
136 2545
137 2545
138 2545
139 2545
140 2560
141 2545
142 2545
143 2575
144 2545
145 2545
146 2545
147 2557
148 2566
149 2570
150 2561
151 2545
152 2545
153 2576
154 2551
155 2545
156 2553
157 2545
158 2545
159 2545
160 2545
161 2561
162 2545
163 2554
164 2545
165 2545
166 2545
167 2545
168 2545
169 2545
170 2545
171 2545
172 2545
173 2547
174 2545
175 2545
176 2545
177 2545
178 2545
179 2545
180 2576
181 2545
182 2545
183 2549
184 2573
185 2545
186 2565
187 2545
188 2545
189 2545
190 2545
191 2552
192 2569
193 2574
194 2545
195 2545
196 2545
197 2545
198 2569
199 2564
200 2545
201 2548
202 2545
203 2545
204 2545
205 2572
206 2545
207 2545
208 2554
209 2545
210 2572
211 2551
212 2560
213 2567
214 2545
215 2545
216 2545
217 2545
218 2545
219 2545
220 2545
221 2571
222 2558
223 2545
224 2545
225 2545
226 2545
227 2545
228 2545
229 2545
230 2545
231 2568
232 233
232 2546
234 2684
235 2771
236 2737
237 2740
238 239
239 2922
240 241
241 242
241 243
241 3019
244 2767
245 2767
246 2767
247 2945
248 2767
249 2767
250 2767
251 2767
252 2767
253 2767
254 2767
255 2767
256 2767
257 2951
258 2767
259 2767
260 263
260 2679
261 263
262 263
264 2928
265 2928
266 2937
267 2928
268 2928
269 2928
270 2928
271 2928
272 2928
273 3118
274 2928
275 2928
276 2928
277 2928
278 2928
279 2928
280 2928
281 2928
282 2928
283 2928
284 2928
285 2928
286 2928
287 2928
288 2928
289 2509
290 2928
291 2928
292 2928
293 294
294 3047
295 318
296 318
297 318
298 318
299 307
300 318
301 2798
302 318
303 2805
304 2811
305 2807
306 318
307 2800
308 2802
309 318
310 2808
311 2799
312 2812
313 2810
314 2814
315 318
316 318
317 2810
318 319
318 324
318 326
318 327
318 2754
318 2797
318 2802
318 2803
320 2808
321 2815
322 2814
323 2815
325 2800
328 2799
329 2802
330 331
331 2423
332 2433
333 2434
334 2431
335 2433
336 2435
337 338
338 2430
338 2431
339 2435
340 2275
340 2426
340 2430
341 346
342 346
343 346
344 346
345 346
346 347
346 348
346 2499
349 352
349 2398
350 2409
351 2409
352 353
352 354
352 2409
355 356
356 357
356 2677
358 2542
359 2536
360 2536
361 363
361 2426
362 363
364 2788
365 2922
366 2892
367 2788
368 2831
369 2788
370 2788
371 2833
372 2833
373 2849
374 2833
375 2833
376 2849
377 2833
378 2833
379 2846
380 2833
381 2833
382 2833
383 2833
384 2833
385 2848
386 2833
387 2845
388 2833
389 2844
390 2841
391 393
392 3041
393 395
393 3040
393 3041
394 3041
396 398
397 398
398 2934
399 2750
400 2751
401 2751
402 2748
403 404
403 3042
405 410
405 2520
405 2532
406 409
407 409
408 409
409 2532
411 2532
412 3129
413 3128
414 3128
415 416
416 417
416 2892
418 419
419 2914
420 2610
421 2985
422 2992
423 2986
424 2610
425 3019
426 2610
427 428
428 2459
429 430
429 2914
431 432
432 2680
433 434
433 2755
435 445
436 445
437 445
438 445
439 445
440 445
441 445
442 445
443 445
444 445
445 446
445 447
445 2516
448 450
449 450
450 451
451 2699
452 463
453 463
454 2524
455 2522
456 2526
457 463
458 2523
459 2528
460 2527
461 2526
462 2527
463 466
463 499
463 2521
463 2528
464 2531
465 2523
467 2529
468 2530
469 2531
470 2680
471 2863
472 2856
473 2864
474 2701
475 2866
476 2860
477 2680
478 2692
479 2680
480 2863
481 2865
482 2858
483 2860
484 2680
485 2680
486 2859
487 2866
488 2865
489 2783
490 2789
491 2701
492 2793
493 2680
494 2680
495 2680
496 2680
497 498
498 595
498 596
498 597
498 598
498 599
498 600
498 601
498 602
498 603
498 604
498 605
498 606
498 607
498 608
498 609
498 610
498 611
498 612
498 613
498 615
498 616
498 617
498 618
498 619
498 620
498 621
498 649
498 650
498 651
498 652
498 653
498 654
498 656
498 657
498 658
498 663
498 664
498 665
498 666
498 667
498 668
498 669
498 670
498 673
498 675
498 680
498 683
498 684
498 686
498 688
498 691
498 692
498 696
498 697
498 701
498 702
498 704
498 706
498 712
498 713
498 715
498 716
498 718
498 720
498 721
498 722
498 723
498 725
498 728
498 729
498 730
498 732
498 733
498 735
498 736
498 737
498 742
498 744
498 745
498 747
498 748
498 749
498 854
498 1200
498 1513
498 1542
498 1634
498 2897
498 2899
498 2901
499 2520
500 501
501 502
501 2696
503 504
504 2880
505 506
506 507
507 2441
508 511
509 511
510 511
511 512
511 513
511 514
511 515
511 2498
516 518
517 518
518 521
519 521
520 521
521 2461
522 529
523 529
524 529
525 551
526 551
527 2637
528 2637
529 2889
530 2637
531 2637
532 2637
533 2637
534 2637
535 2637
536 2637
537 2637
538 2736
539 2637
540 2847
541 2637
542 2637
543 2637
544 2637
545 2637
546 2637
547 2917
548 2637
549 2736
550 2637
551 2885
552 2443
553 2443
554 2443
555 2443
556 2443
557 2443
558 2449
559 2449
560 2443
561 2443
562 2443
563 2443
564 2443
565 2451
566 2447
567 2451
568 2443
569 2443
570 2443
571 2452
572 2443
573 2443
574 2443
575 2443
576 2443
577 2452
578 2443
579 2443
580 2443
581 2446
582 2443
583 2448
584 2443
585 2443
586 2443
587 2443
588 2443
589 590
589 591
589 2934
592 593
593 594
593 2677
614 662
622 681
623 687
624 698
625 698
626 703
627 707
628 707
629 707
630 707
631 707
632 710
633 710
634 710
635 710
636 710
637 710
638 711
639 711
640 711
641 711
642 711
643 711
644 711
645 711
646 741
647 741
648 2897
655 2592
659 2592
660 2590
661 2605
662 2627
671 2900
672 2597
674 2606
676 2624
677 2679
678 2623
679 2604
681 2628
682 2609
685 2615
687 2625
689 2620
690 2591
693 2605
694 2898
695 2612
698 2609
699 2594
700 2590
703 2595
705 2600
707 2617
708 2595
709 2591
710 2629
711 2626
714 2587
717 2598
719 2900
724 2622
726 2597
727 2604
731 2623
734 2606
738 2589
739 2621
740 2618
741 2629
743 2620
746 2621
750 2614
751 2598
752 2618
753 2613
754 2593
755 2746
756 2747
757 2746
758 2742
759 2743
760 2741
760 2742
760 2744
761 2745
762 2747
763 2743
764 2762
765 768
766 1741
767 2762
768 2761
768 2762
769 771
770 771
771 3002
772 2577
773 775
774 775
775 776
775 2666
777 778
778 3047
779 780
780 2927
781 783
782 783
783 3049
784 785
785 786
785 2997
787 789
788 789
789 790
789 3062
791 794
792 794
793 794
794 795
795 2424
796 807
796 1752
796 2399
797 807
798 807
799 807
800 807
801 807
802 807
803 807
804 2401
805 2400
806 2400
807 2400
807 2401
808 2402
809 2402
810 811
811 2717
812 814
813 814
814 1653
815 822
816 822
817 822
818 822
819 822
820 822
821 822
822 823
822 2639
824 2889
825 2886
826 2890
827 2886
828 2947
829 2947
830 2947
831 2947
832 2947
833 2947
834 2947
835 2947
836 2949
837 2947
838 2949
839 840
840 2944
841 843
842 843
843 2635
844 846
845 846
846 2916
847 850
848 850
849 850
850 851
850 3044
852 2501
853 854
855 856
856 2934
857 2116
857 2555
857 3024
858 860
859 860
860 3024
861 862
862 863
863 2386
864 2910
865 866
866 2901
866 2910
867 2910
868 869
869 2934
870 871
870 2826
872 873
872 874
872 2934
875 876
876 2941
877 2655
878 2652
879 2648
880 2653
881 2670
882 2640
883 2640
884 2640
885 2644
886 2640
887 2674
888 2649
889 2640
890 2656
891 2647
892 2670
893 2673
894 2640
895 2655
896 2640
897 2673
898 2640
899 2674
900 2640
901 2644
902 2669
903 2669
904 2672
905 2643
906 2653
907 2651
908 2656
909 2640
910 912
911 912
912 2934
913 2421
914 3001
915 2456
916 2457
917 918
918 3028
919 922
919 2425
920 922
921 922
923 931
924 928
925 2539
926 928
927 928
928 929
928 930
928 2538
928 2539
931 2539
932 2661
933 2659
934 2661
935 940
936 2660
937 2659
938 940
939 2663
940 944
940 2641
940 2658
940 2663
941 2664
942 2665
943 2665
945 2934
946 2934
947 2934
948 2934
949 2934
950 2934
951 2934
952 2934
953 2934
954 2934
955 2934
956 2934
957 2934
958 2934
959 2934
960 2934
961 2934
962 2934
963 2934
964 2934
965 2934
966 2934
967 2934
968 2934
969 2971
970 2934
971 2934
972 2934
973 2934
974 2934
975 2934
976 2934
977 2934
978 2934
979 2934
980 2934
981 2934
982 2934
983 2934
984 2934
985 2934
986 2934
987 2934
988 2934
989 2934
990 2934
991 2966
992 2934
993 2729
994 2934
995 2934
996 2934
997 2934
998 2934
999 2934
1000 2934
1001 2934
1002 2934
1003 2934
1004 2934
1005 2934
1006 2934
1007 2934
1008 2934
1009 2934
1010 2934
1011 2934
1012 2934
1013 2934
1014 2934
1015 2934
1016 2934
1017 2934
1018 2934
1019 2934
1020 2934
1021 2934
1022 2972
1023 2934
1024 2934
1025 2934
1026 2934
1027 2934
1028 2934
1029 2934
1030 2934
1031 2963
1032 2934
1033 2934
1034 2934
1035 2934
1036 2934
1037 2934
1038 2934
1039 2934
1040 2954
1041 2934
1042 2934
1043 2934
1044 2934
1045 2934
1046 2934
1047 2934
1048 2934
1049 2934
1050 2969
1051 2934
1052 2934
1053 2934
1054 2934
1055 2934
1056 2934
1057 2934
1058 2934
1059 2934
1060 2934
1061 2967
1062 2934
1063 2934
1064 2934
1065 2934
1066 2934
1067 2934
1068 2972
1069 2734
1070 2934
1071 2934
1072 2934
1073 2934
1074 2934
1075 2934
1076 2934
1077 2934
1078 2934
1079 2934
1080 2934
1081 2934
1082 2934
1083 2934
1084 2934
1085 2934
1086 2934
1087 2934
1088 2934
1089 2934
1090 2934
1091 2934
1092 2958
1093 2934
1094 2934
1095 2959
1096 2934
1097 2934
1098 2934
1099 2934
1100 2934
1101 2934
1102 2934
1103 2934
1104 2934
1105 2953
1106 2934
1107 2934
1108 2934
1109 2934
1110 2934
1111 2934
1112 2934
1113 2934
1114 2934
1115 2934
1116 2934
1117 2934
1118 2962
1119 2934
1120 2934
1121 2934
1122 2934
1123 2934
1124 2934
1125 2934
1126 2934
1127 2934
1128 2934
1129 2934
1130 2956
1131 2934
1132 2934
1133 2963
1134 2934
1135 2965
1136 2934
1137 2934
1138 2934
1139 2934
1140 2934
1141 2934
1142 2934
1143 2934
1144 2961
1145 2934
1146 2994
1147 2934
1148 2934
1149 2970
1150 2934
1151 2934
1152 2934
1153 2934
1154 2934
1155 2934
1156 2934
1157 2934
1158 2934
1159 2957
1160 2934
1161 2934
1162 2934
1163 2934
1164 2934
1165 2934
1166 2934
1167 2934
1168 2966
1169 2934
1170 2934
1171 2934
1172 2934
1173 2934
1174 2934
1175 2934
1176 2967
1177 2934
1178 1179
1179 1180
1179 1181
1179 2404
1182 1183
1183 1184
1183 2430
1185 1196
1185 2975
1186 1196
1187 2513
1188 1196
1189 2515
1190 1196
1191 2515
1192 1196
1193 2514
1194 2514
1195 1196
1196 1197
1196 1198
1196 2513
1196 2515
1199 1200
1200 1201
1202 1203
1202 2796
1204 1210
1205 1210
1206 2723
1207 2720
1208 2721
1209 2721
1210 2723
1211 2718
1212 1218
1212 2693
1212 2718
1212 2722
1213 2725
1214 2724
1215 2725
1216 2719
1217 2718
1219 1220
1220 2752
1221 1227
1222 1227
1223 1226
1224 1226
1225 1226
1226 1227
1226 1228
1226 2821
1229 1231
1229 2516
1230 1231
1232 2545
1233 2545
1234 1236
1235 1236
1236 1237
1237 2442
1238 1239
1238 2825
1240 1241
1241 1242
1241 2825
1243 1244
1243 1245
1243 1246
1243 1247
1243 1248
1243 2761
1249 1250
1250 3012
1251 1252
1252 1253
1252 1254
1252 2934
1255 1260
1256 1260
1257 1260
1258 1260
1259 1260
1260 1261
1260 2466
1262 1263
1262 2790
1264 1265
1265 2882
1266 3127
1267 3053
1268 3106
1269 3106
1270 1271
1271 2394
1272 3053
1273 3129
1274 1276
1275 1276
1276 2494
1277 2873
1278 2873
1279 2873
1280 2875
1281 2875
1282 1283
1282 2752
1284 1289
1285 1289
1286 1288
1287 1288
1288 1289
1288 2387
1290 2501
1291 2909
1292 2501
1293 2501
1294 2501
1295 3130
1296 2501
1297 2501
1298 2501
1299 2501
1300 2501
1301 2501
1302 2940
1303 2501
1304 2501
1305 2501
1306 2501
1307 2395
1308 2501
1309 1315
1310 2879
1311 2878
1312 2879
1313 1315
1314 1315
1315 2876
1315 2877
1316 2878
1317 3055
1318 3055
1319 3099
1320 3125
1321 3055
1322 3055
1323 3060
1324 3061
1325 3079
1326 3055
1327 3055
1328 3066
1329 3126
1330 3081
1331 3059
1332 3061
1333 3082
1334 3055
1335 3055
1336 3126
1337 3088
1338 3055
1339 3125
1340 3055
1341 3075
1342 3100
1343 3074
1344 3055
1345 3078
1346 3078
1347 3055
1348 3073
1349 3046
1350 3045
1351 2925
1352 2925
1353 2925
1354 2925
1355 2925
1356 2925
1357 2891
1358 2925
1359 2938
1360 3090
1361 2925
1362 2925
1363 2925
1364 3076
1365 2925
1366 2925
1367 2925
1368 2925
1369 2925
1370 2925
1371 2925
1372 3095
1373 2925
1374 2925
1375 2925
1376 2888
1377 2925
1378 2925
1379 2925
1380 2925
1381 1382
1382 2934
1383 1384
1384 1385
1384 2944
1386 2425
1387 2422
1388 2419
1389 1390
1390 3002
1391 1397
1392 1397
1393 1397
1394 1397
1395 1397
1396 1397
1397 2934
1398 1399
1398 1400
1398 1401
1398 2934
1402 1403
1403 3006
1404 2708
1405 2706
1406 1414
1407 1414
1408 1414
1409 1414
1410 1414
1411 1414
1412 1414
1413 1414
1414 1415
1414 1416
1414 1417
1414 1418
1414 2795
1419 1462
1420 1462
1421 1462
1422 1462
1423 1462
1424 1462
1425 1462
1426 1462
1427 3118
1428 2501
1429 2501
1430 2501
1431 2501
1432 2501
1433 2501
1434 2501
1435 2501
1436 2501
1437 2501
1438 2501
1439 2501
1440 2501
1441 2387
1442 2943
1443 2501
1444 2501
1445 2395
1446 2501
1447 2501
1448 2501
1449 2501
1450 2501
1451 2501
1452 2501
1453 2501
1454 2501
1455 2501
1456 2501
1457 1462
1458 2501
1459 2501
1460 3076
1461 2501
1462 1463
1462 2936
1464 2540
1465 2537
1466 2540
1467 1469
1468 1469
1469 2951
1470 1476
1471 1476
1472 1476
1473 1476
1474 1476
1475 1476
1476 1477
1476 2678
1478 2939
1479 2942
1480 2939
1481 2939
1482 2939
1483 2939
1484 2939
1485 2939
1486 2939
1487 2939
1488 2939
1489 2939
1490 2939
1491 2939
1492 2939
1493 2939
1494 2939
1495 2939
1496 2939
1497 2943
1498 2939
1499 2939
1500 1504
1501 2690
1502 1504
1503 2690
1504 2689
1504 2690
1505 1511
1506 2819
1507 2818
1508 1511
1509 1511
1510 2819
1511 2817
1511 2818
1512 1513
1513 1514
1515 1516
1516 1517
1516 2638
1518 1519
1519 2487
1520 2637
1521 2654
1522 2637
1523 2637
1524 2637
1525 2923
1526 2637
1527 2637
1528 2637
1529 2671
1530 2637
1531 2637
1532 2637
1533 2637
1534 2915
1535 2637
1536 2637
1537 2637
1538 2637
1539 2637
1540 2637
1541 1542
1543 1544
1544 2753
1544 2816
1545 2816
1546 2816
1547 2881
1548 2881
1549 2881
1550 2881
1551 2884
1552 2884
1553 2881
1554 2883
1555 1560
1556 2505
1557 1560
1558 1560
1559 2503
1560 2499
1560 2500
1561 2504
1562 2505
1563 2504
1564 2506
1565 2506
1566 1570
1567 1570
1568 1570
1569 1570
1570 1571
1570 2934
1572 3053
1573 3053
1574 3053
1575 1614
1576 3093
1577 3077
1578 3082
1579 3113
1580 3098
1581 3053
1582 3053
1583 3079
1584 3053
1585 3053
1586 3122
1587 3053
1588 3093
1589 3123
1590 3111
1591 3070
1592 2393
1593 3117
1594 3077
1595 3116
1596 3133
1597 3065
1598 3089
1599 3133
1600 3117
1601 3085
1602 3101
1603 2394
1604 3084
1605 3091
1606 3087
1607 3094
1608 3132
1609 3089
1610 3094
1611 3121
1612 3053
1613 3132
1614 3113
1615 3119
1616 3053
1617 2389
1618 3085
1619 3115
1620 3101
1621 3053
1622 2388
1623 2392
1624 3072
1625 3058
1626 3111
1627 3070
1628 2890
1629 2813
1630 2809
1631 2794
1632 2813
1633 1634
1634 1635
1636 1645
1637 1645
1638 1645
1639 1645
1640 1645
1641 1645
1642 1645
1643 1645
1644 1645
1645 1646
1645 1647
1645 1648
1645 2850
1649 3050
1650 3051
1651 3051
1652 3049
1653 2061
1653 2063
1653 2068
1653 2069
1653 2070
1653 2077
1653 2078
1653 2080
1653 2292
1653 2415
1653 2466
1654 2467
1656 2478
1657 2474
1658 2467
1659 2486
1660 2467
1661 2480
1662 2484
1664 2467
1665 2467
1666 2467
1667 2467
1668 2482
1669 2467
1671 2467
1672 2484
1673 2467
1674 2473
1675 2467
1676 2467
1677 2474
1678 2472
1680 1682
1681 1682
1682 1683
1682 2469
1684 2467
1685 2467
1686 2467
1687 2467
1688 2467
1689 2476
1690 2481
1691 2467
1692 2482
1693 2476
1694 2467
1695 1696
1696 2477
1697 2483
1698 1699
1698 2501
1700 2501
1701 2501
1702 2501
1703 3020
1704 2414
1705 2501
1706 2410
1707 3017
1708 3022
1709 2417
1710 2417
1711 2416
1712 2501
1713 2993
1714 2414
1715 2412
1716 2993
1717 2976
1718 2411
1719 1720
1720 2711
1721 1723
1722 2635
1723 2635
1724 2635
1725 2933
1726 2635
1727 2662
1728 2657
1729 2635
1730 2635
1731 2635
1732 2635
1733 2635
1734 2635
1735 2635
1736 2635
1737 1738
1737 2894
1739 1740
1739 2948
1741 1742
1741 2759
1743 1745
1744 2785
1745 2786
1746 2787
1747 2785
1748 2787
1749 2784
1749 2785
1749 2786
1750 1752
1751 1752
1753 2934
1754 1763
1755 1763
1756 1763
1757 1763
1758 1763
1759 1763
1760 1763
1761 1763
1762 1763
1763 2944
1764 2705
1765 2709
1766 2707
1767 2709
1768 1771
1769 1771
1770 1771
1771 1772
1771 1773
1771 2893
1774 1793
1775 1793
1776 1793
1777 1793
1778 1793
1779 1793
1780 1793
1781 1793
1782 2906
1783 2907
1784 1793
1785 2903
1786 1793
1787 1793
1788 2906
1789 2905
1790 1793
1791 2905
1792 2908
1793 1794
1793 2901
1793 2902
1793 2907
1795 2902
1796 2908
1797 1798
1797 1800
1797 2495
1797 3083
1799 2495
1801 1803
1802 1803
1803 1804
1804 2458
1805 1810
1806 1810
1807 1810
1808 1810
1809 1810
1810 1811
1810 1812
1810 1813
1810 1814
1810 1815
1810 1816
1810 1817
1810 2497
1818 2403
1818 2404
1818 2406
1819 2406
1820 2408
1821 2407
1822 2408
1823 1824
1823 2793
1825 3004
1826 3004
1827 3004
1828 1838
1829 1838
1830 3004
1831 3004
1832 3010
1833 3012
1834 3004
1835 3009
1836 3004
1837 3011
1838 3008
1839 1840
1840 3008
1841 1849
1842 1849
1843 1849
1844 1849
1845 1849
1846 1849
1847 1848
1847 1849
1849 1850
1849 1851
1849 1852
1849 1853
1849 2926
1854 1856
1855 1856
1856 2988
1857 2925
1858 2925
1859 2925
1860 2925
1861 2925
1862 2925
1863 2925
1864 2925
1865 2925
1866 2925
1867 2925
1868 2918
1869 2925
1870 2925
1871 2925
1872 2925
1873 2913
1874 2925
1875 2925
1876 2925
1877 2925
1878 2925
1879 2925
1880 2925
1881 2925
1882 2925
1883 2509
1884 2925
1885 2925
1886 2925
1887 2925
1888 2925
1889 2925
1890 2925
1891 2925
1892 2925
1893 2925
1894 2925
1895 2925
1896 2925
1897 2925
1898 2925
1899 2925
1900 2925
1901 2925
1902 1903
1903 2934
1904 2405
1905 2405
1906 2407
1907 1909
1908 1909
1909 1910
1909 1911
1909 2934
1912 2676
1913 2637
1914 2915
1915 2637
1916 2637
1917 2637
1918 2637
1919 2637
1920 2637
1921 2887
1922 2842
1923 2717
1924 2917
1925 2637
1926 2637
1927 1928
1927 2934
1929 3021
1930 3021
1931 3021
1932 3021
1933 3021
1934 3021
1935 3021
1936 3021
1937 3021
1938 3021
1939 3021
1940 3021
1941 3021
1942 3021
1943 3021
1944 1945
1944 3023
1946 3023
1947 3022
1948 3021
1949 1953
1950 1953
1951 1953
1952 1953
1953 1954
1953 3001
1955 2929
1956 2929
1957 2929
1958 2929
1959 2929
1960 2929
1961 2929
1962 3107
1963 2929
1964 2929
1965 2929
1966 2929
1967 2929
1968 2929
1969 2929
1970 2929
1971 2929
1972 2929
1973 2929
1974 2929
1975 2929
1976 2929
1977 2929
1978 2929
1979 1980
1980 2495
1981 1982
1981 2681
1981 2827
1983 2827
1984 2827
1985 1999
1985 2893
1985 2894
1986 1999
1987 1999
1988 1999
1989 1999
1990 1999
1991 2896
1992 1999
1993 1999
1994 1999
1995 1999
1996 2896
1997 1999
1998 1999
1999 2896
2000 2895
2001 2003
2002 2003
2003 2894
2003 2895
2004 2895
2005 2013
2006 2013
2007 2013
2008 2013
2009 2013
2010 2013
2011 2013
2012 2013
2013 2014
2013 2767
2015 2016
2016 2494
2017 2018
2018 2423
2019 2021
2019 2519
2020 2021
2021 2022
2021 2023
2024 2037
2025 2037
2026 2037
2027 2037
2028 2037
2029 2037
2030 2037
2031 2950
2032 2037
2033 2037
2034 2950
2035 2037
2036 2037
2037 2038
2037 2946
2037 2950
2039 2041
2040 2041
2041 2695
2042 2045
2043 2045
2044 2045
2045 2740
2046 2047
2047 2876
2048 2982
2049 2982
2050 2982
2051 2982
2052 2982
2053 2984
2054 2989
2055 2991
2056 2988
2057 2982
2058 2989
2059 2982
2060 2982
2062 2491
2064 2066
2065 2066
2066 2067
2066 2466
2071 2491
2072 2489
2073 2075
2074 2075
2075 2466
2076 2468
2079 2489
2081 2089
2082 2089
2083 2579
2084 2581
2085 2582
2086 2579
2087 2582
2088 2089
2089 2091
2089 2543
2089 2578
2090 2580
2092 2093
2093 2995
2094 2925
2095 2933
2096 2507
2097 2925
2098 2932
2099 2925
2100 2977
2101 2977
2102 2977
2103 2992
2104 2990
2105 2977
2106 2977
2107 2977
2108 2983
2109 2977
2110 2981
2111 2977
2112 2979
2113 2981
2114 2115
2115 3006
2117 3025
2118 2427
2119 2427
2120 2427
2121 2427
2122 2427
2123 2465
2124 2464
2125 2437
2126 2437
2127 2456
2128 2436
2129 2465
2130 2463
2131 2464
2132 2135
2133 2135
2134 2135
2135 2136
2135 2137
2135 2138
2135 2931
2139 2493
2140 2141
2141 2492
2141 2493
2142 2493
2143 2144
2143 2145
2143 2146
2143 2147
2143 2148
2143 2149
2143 2150
2143 2151
2143 2152
2143 2153
2143 2154
2143 2155
2143 2156
2143 2157
2143 2162
2143 2821
2143 2822
2158 2160
2159 2160
2160 2823
2161 2822
2163 2823
2164 2165
2165 2544
2166 2167
2167 2934
2168 2920
2169 2920
2170 2921
2171 2920
2172 2920
2173 2920
2174 2176
2175 2176
2176 2843
2177 2178
2178 2501
2179 2180
2180 3025
2181 2187
2182 2187
2183 2632
2184 2634
2185 2633
2186 2634
2187 2189
2187 2191
2187 2599
2187 2631
2187 2634
2188 2633
2190 2631
2192 2193
2192 2194
2192 2195
2192 2196
2192 2197
2192 2198
2192 2199
2192 2508
2200 3104
2201 3120
2202 3108
2203 3104
2204 3104
2205 3120
2206 3105
2207 3104
2208 2209
2209 2700
2210 2695
2211 2702
2212 2700
2213 2769
2214 2980
2215 2688
2216 2688
2217 2997
2218 2980
2219 2996
2220 2952
2221 2688
2222 2688
2223 2688
2224 2688
2225 2688
2226 2688
2227 2971
2228 2727
2229 2727
2230 2727
2231 2234
2232 2240
2233 2731
2234 2735
2235 2733
2236 2727
2237 2727
2238 2728
2239 2734
2240 2730
2241 2731
2242 2727
2243 2735
2244 2246
2245 2246
2246 2508
2247 2439
2248 2457
2249 2455
2250 2445
2251 2462
2252 2439
2253 2460
2254 2462
2255 2439
2256 2439
2257 2738
2258 2790
2259 2738
2260 2684
2261 2938
2262 2630
2263 2630
2264 2630
2265 2923
2266 2275
2267 2275
2268 2275
2269 2275
2270 2275
2271 2275
2272 2275
2273 2429
2274 2429
2275 2276
2275 2278
2275 2279
2275 2428
2277 2428
2280 2281
2281 2934
2282 2284
2283 2284
2284 2285
2284 2801
2286 2289
2287 2289
2288 2289
2288 2726
2290 2291
2291 2420
2292 2293
2294 2301
2295 2301
2296 2300
2297 2300
2298 2300
2299 2300
2300 2301
2300 2485
2301 2303
2302 2303
2303 2304
2303 2305
2306 3016
2307 3013
2308 3003
2309 3016
2310 3014
2311 3015
2312 2324
2312 3007
2313 2324
2314 2324
2315 2324
2316 2324
2317 2324
2318 2324
2319 2324
2320 2511
2321 2510
2322 2324
2323 2512
2324 2326
2324 2327
2324 2328
2324 2329
2324 2330
2324 2331
2324 2332
2324 2333
2324 2510
2325 2512
2334 2338
2335 2338
2336 2338
2337 2338
2338 2339
2338 2930
2340 2342
2341 2342
2342 2820
2343 2344
2344 2388
2345 2354
2346 2354
2347 2355
2348 2355
2349 2714
2350 2715
2351 2712
2352 2716
2353 2715
2354 2711
2355 2710
2356 2716
2357 2358
2358 2702
2359 2360
2360 2403
2361 2501
2362 2501
2363 2391
2364 3037
2365 2501
2366 3030
2367 2501
2368 3033
2369 3032
2370 3029
2371 3035
2372 2501
2373 3030
2374 3035
2375 2501
2376 2501
2377 3038
2378 3037
2379 3039
2380 3039
2381 2382
2381 2934
2383 2385
2384 2385
2385 2934
2386 2415
2386 3083
2387 3130
2388 3054
2389 2390
2389 3053
2390 2391
2390 2395
2391 2392
2392 2393
2393 2394
2396 2397
2396 2418
2396 3052
2397 2398
2397 2410
2398 2399
2399 2403
2401 2402
2404 2405
2406 2407
2406 2408
2410 2411
2411 2412
2412 2413
2413 2414
2413 2416
2415 2427
2416 2417
2418 2419
2418 2424
2419 2420
2420 2421
2421 2422
2422 2423
2424 2425
2426 2490
2427 2438
2427 2453
2427 2465
2428 2429
2431 2432
2432 2433
2432 2434
2434 2435
2436 2437
2436 2453
2438 2439
2438 2463
2439 2440
2439 2458
2440 2441
2440 2454
2441 2442
2442 2443
2443 2444
2444 2445
2444 2450
2445 2446
2446 2447
2447 2448
2448 2449
2450 2451
2450 2452
2453 2490
2454 2455
2454 2457
2455 2456
2458 2459
2459 2460
2460 2461
2461 2462
2463 2464
2466 2467
2467 2468
2467 2486
2468 2469
2469 2470
2470 2471
2470 2484
2471 2472
2471 2475
2472 2473
2473 2474
2475 2476
2475 2477
2477 2478
2478 2479
2479 2480
2479 2483
2480 2481
2481 2482
2485 2507
2485 2928
2486 2487
2487 2488
2487 2492
2488 2489
2488 2491
2490 2501
2492 2494
2496 2497
2496 2508
2496 3036
2497 2498
2498 2499
2500 2502
2500 2506
2501 2517
2501 3052
2502 2503
2502 2505
2503 2504
2507 2509
2510 2511
2511 2512
2513 2514
2516 2944
2517 2555
2517 3026
2518 2519
2518 2533
2518 2934
2519 2520
2521 2522
2521 2524
2522 2523
2524 2525
2525 2526
2525 2527
2528 2529
2529 2530
2530 2531
2533 2534
2533 2680
2534 2535
2534 2679
2535 2536
2535 2636
2536 2537
2536 2541
2537 2538
2538 2540
2541 2542
2541 2583
2542 2543
2543 2544
2544 2545
2545 2546
2545 2556
2546 2547
2547 2548
2548 2549
2549 2550
2550 2551
2550 2552
2552 2553
2553 2554
2555 2577
2556 2557
2556 2562
2557 2558
2558 2559
2559 2560
2559 2561
2562 2563
2562 2573
2563 2564
2563 2570
2564 2565
2565 2566
2566 2567
2567 2568
2568 2569
2570 2571
2571 2572
2573 2574
2574 2575
2575 2576
2577 2610
2578 2579
2578 2580
2580 2581
2581 2582
2583 2584
2584 2585
2584 2599
2585 2586
2585 2596
2586 2587
2586 2593
2587 2588
2588 2589
2588 2591
2589 2590
2591 2592
2593 2594
2594 2595
2596 2597
2596 2598
2599 2600
2600 2601
2601 2602
2601 2607
2602 2603
2602 2606
2603 2604
2603 2605
2607 2608
2607 2624
2608 2609
2608 2611
2610 2645
2610 3017
2611 2612
2611 2622
2612 2613
2613 2614
2614 2615
2615 2616
2616 2617
2616 2619
2617 2618
2619 2620
2619 2621
2622 2623
2624 2625
2625 2626
2626 2627
2627 2628
2628 2629
2630 2635
2630 2925
2630 2938
2631 2632
2632 2633
2635 2637
2635 2930
2636 2638
2636 2677
2637 2654
2637 2788
2638 2639
2639 2640
2640 2641
2640 2667
2641 2642
2642 2643
2642 2646
2643 2644
2645 2688
2645 2998
2646 2647
2646 2656
2647 2648
2648 2649
2649 2650
2650 2651
2650 2655
2651 2652
2652 2653
2654 2657
2657 2662
2658 2659
2658 2660
2660 2661
2662 2666
2663 2664
2664 2665
2666 2671
2667 2668
2667 2674
2668 2669
2668 2672
2669 2670
2671 2675
2672 2673
2675 2676
2675 2736
2676 2678
2678 2717
2680 2681
2680 2828
2681 2682
2682 2683
2682 2825
2683 2684
2683 2817
2684 2685
2684 2753
2685 2686
2685 2748
2686 2687
2686 2739
2687 2689
2687 2737
2688 2729
2688 2973
2689 2691
2691 2692
2691 2726
2692 2693
2693 2694
2694 2695
2694 2703
2695 2696
2696 2697
2697 2698
2697 2702
2698 2699
2698 2701
2699 2700
2703 2704
2703 2712
2704 2705
2704 2710
2705 2706
2706 2707
2707 2708
2708 2709
2710 2711
2712 2713
2713 2714
2713 2716
2714 2715
2718 2719
2719 2720
2720 2721
2722 2723
2722 2724
2724 2725
2726 2727
2727 2728
2727 2732
2728 2730
2729 2767
2729 2952
2730 2731
2732 2733
2732 2735
2733 2734
2737 2738
2739 2740
2739 2741
2742 2743
2744 2745
2744 2747
2745 2746
2748 2749
2749 2750
2749 2752
2750 2751
2753 2754
2754 2755
2755 2756
2756 2757
2756 2792
2756 2795
2757 2758
2757 2768
2758 2759
2758 2764
2759 2760
2760 2761
2760 2763
2764 2765
2765 2766
2767 2924
2768 2769
2768 2784
2769 2770
2770 2771
2770 2783
2771 2772
2772 2773
2773 2774
2773 2782
2774 2775
2775 2776
2775 2777
2777 2778
2777 2779
2779 2780
2779 2781
2784 2789
2786 2787
2788 2791
2788 2918
2789 2790
2791 2794
2791 2824
2792 2793
2794 2796
2796 2801
2797 2798
2797 2800
2798 2799
2801 2809
2803 2804
2803 2815
2804 2805
2804 2811
2805 2806
2806 2807
2806 2810
2807 2808
2809 2813
2811 2812
2812 2814
2817 2820
2818 2819
2820 2821
2822 2823
2824 2826
2824 2909
2826 2831
2828 2829
2828 2880
2829 2830
2829 2876
2830 2832
2830 2851
2831 2838
2832 2833
2833 2834
2833 2843
2834 2835
2834 2837
2835 2836
2837 2839
2837 2840
2838 2842
2838 2891
2840 2841
2842 2847
2843 2844
2844 2845
2845 2846
2846 2848
2847 2850
2848 2849
2850 2885
2851 2852
2851 2873
2852 2853
2852 2872
2853 2854
2853 2868
2854 2855
2854 2867
2855 2856
2856 2857
2857 2858
2857 2861
2858 2859
2859 2860
2861 2862
2861 2866
2862 2863
2862 2864
2864 2865
2868 2869
2869 2870
2870 2871
2873 2874
2874 2875
2877 2878
2877 2879
2880 2881
2881 2882
2882 2883
2883 2884
2885 2886
2886 2887
2886 2890
2887 2888
2888 2889
2891 2892
2893 2899
2897 2898
2898 2900
2899 2934
2902 2903
2903 2904
2904 2905
2904 2906
2907 2908
2909 2911
2911 2912
2911 2916
2912 2913
2912 2915
2913 2914
2916 2917
2918 2919
2919 2920
2919 2923
2920 2921
2921 2922
2924 2925
2924 2945
2924 2951
2925 2926
2926 2927
2927 2928
2928 2929
2929 2935
2930 2931
2931 2932
2932 2933
2934 2944
2935 2936
2935 3062
2936 2937
2937 2939
2939 2940
2940 2941
2941 2942
2942 2943
2944 2975
2945 2946
2946 2947
2947 2948
2948 2949
2952 2953
2953 2954
2954 2955
2955 2956
2955 2968
2956 2957
2957 2958
2958 2959
2959 2960
2960 2961
2960 2964
2961 2962
2962 2963
2964 2965
2964 2967
2965 2966
2968 2969
2968 2972
2969 2970
2970 2971
2973 2974
2973 2994
2974 2976
2974 2993
2975 3007
2976 2977
2977 2978
2977 2982
2978 2979
2978 2981
2979 2980
2982 2983
2982 2990
2983 2984
2984 2985
2985 2986
2986 2987
2987 2988
2987 2989
2990 2991
2991 2992
2994 2995
2995 2996
2996 2997
2998 2999
2998 3013
2999 3000
2999 3003
3000 3001
3000 3002
3003 3004
3004 3005
3004 3009
3005 3006
3005 3008
3007 3036
3009 3010
3010 3011
3011 3012
3013 3014
3014 3015
3015 3016
3017 3018
3018 3019
3018 3020
3020 3021
3021 3022
3021 3023
3024 3025
3026 3027
3026 3040
3027 3028
3027 3031
3028 3029
3029 3030
3031 3032
3031 3038
3032 3033
3033 3034
3034 3035
3034 3037
3036 3083
3038 3039
3040 3042
3042 3043
3043 3044
3043 3048
3044 3045
3045 3046
3046 3047
3048 3049
3048 3050
3050 3051
3052 3053
3053 3054
3054 3055
3055 3056
3055 3096
3056 3057
3056 3086
3057 3058
3057 3063
3058 3059
3059 3060
3060 3061
3062 3069
3063 3064
3063 3080
3064 3065
3064 3079
3065 3066
3066 3067
3067 3068
3067 3071
3068 3070
3069 3076
3069 3090
3071 3072
3071 3078
3072 3073
3073 3074
3074 3075
3075 3077
3080 3081
3080 3084
3081 3082
3084 3085
3086 3087
3086 3091
3087 3088
3088 3089
3090 3095
3091 3092
3092 3093
3092 3094
3095 3107
3096 3097
3096 3131
3097 3098
3097 3102
3098 3099
3099 3100
3100 3101
3102 3103
3102 3127
3103 3104
3103 3121
3104 3105
3104 3108
3105 3106
3107 3114
3108 3109
3109 3110
3109 3119
3110 3111
3110 3112
3112 3113
3112 3115
3114 3118
3114 3130
3115 3116
3116 3117
3119 3120
3121 3122
3122 3123
3123 3124
3124 3125
3124 3126
3127 3128
3128 3129
3131 3132
3131 3133
