# fabaceae_sub clade from the Open Tree of Life; 1067 nodes, 1066 edges; canonical sorted order
0 880
1 26
2 26
3 875
4 26
5 881
6 26
7 878
8 26
9 881
10 26
11 12
11 874
13 879
14 26
15 26
16 26
17 876
18 26
19 26
20 21
20 26
22 26
23 873
24 877
25 874
26 27
26 29
26 847
26 872
26 879
28 878
30 876
31 32
32 882
33 882
34 797
35 883
36 845
37 40
38 40
39 40
40 41
40 42
40 43
40 869
44 851
45 851
46 47
46 868
48 852
49 857
50 851
51 52
51 871
53 54
53 55
53 858
56 866
57 862
58 860
59 863
60 61
60 860
62 846
63 861
64 65
64 867
66 859
67 863
68 861
69 866
70 864
71 72
71 73
71 850
74 849
75 76
75 77
75 797
78 869
79 865
80 854
81 86
82 86
83 86
84 86
85 86
86 800
87 88
88 89
88 805
90 91
90 812
92 809
93 814
94 821
95 841
96 828
97 797
98 812
99 841
100 101
100 102
100 103
100 104
100 105
100 830
106 831
107 841
108 844
109 822
110 808
111 843
112 113
112 114
112 115
112 840
116 797
117 807
118 119
118 120
118 121
118 822
120 122
123 124
123 125
123 827
126 842
127 827
128 823
129 823
130 843
131 819
132 811
133 830
134 826
135 826
136 837
137 138
137 810
138 139
140 839
141 828
142 814
143 844
144 145
144 813
146 813
147 148
147 833
149 150
149 151
149 834
152 817
153 155
154 155
155 156
155 807
157 158
157 849
159 162
160 161
160 162
162 163
162 870
164 165
165 867
166 551
167 551
168 551
169 551
170 551
171 551
172 551
173 998
174 551
175 551
176 551
177 551
178 551
179 551
180 551
181 551
182 551
183 551
184 551
185 931
186 551
187 551
188 903
189 551
190 551
191 1018
192 551
193 1040
194 903
195 551
196 551
197 198
197 199
197 200
197 201
197 909
202 551
203 204
203 205
203 1052
204 206
207 551
208 551
209 551
210 551
211 551
212 551
213 551
214 551
215 551
216 551
217 551
218 551
219 551
220 551
221 946
222 551
223 1049
224 935
225 914
226 227
226 228
226 1054
229 551
230 551
231 914
232 551
233 927
234 948
235 551
236 1007
237 551
238 551
239 240
239 943
241 551
242 978
243 1010
244 987
245 1002
246 551
247 551
248 1051
249 551
250 551
251 1040
252 551
253 551
254 551
255 969
256 1030
257 968
258 551
259 1011
260 551
261 1009
262 952
263 937
264 551
265 551
266 994
267 551
268 551
269 551
270 551
271 1026
272 1013
273 551
274 275
274 276
274 905
277 551
278 979
279 551
280 551
281 551
282 551
283 551
284 551
285 956
286 551
287 551
288 551
289 551
290 551
291 551
292 982
293 551
294 551
295 551
296 896
297 988
298 917
299 551
300 551
301 551
302 551
303 972
304 551
305 551
306 1012
307 551
308 551
309 551
310 551
311 551
312 1011
313 551
314 1063
315 551
316 551
317 551
318 551
319 551
320 1047
321 551
322 1007
323 1059
324 551
325 1062
326 1037
327 551
328 926
329 1057
330 551
331 551
332 551
333 551
334 551
335 551
336 923
337 551
338 551
339 551
340 990
341 1056
342 1050
343 551
344 551
345 551
346 920
347 551
348 551
349 551
350 906
351 1002
352 965
353 899
354 551
355 551
356 551
357 924
358 942
359 1003
360 361
360 364
360 365
360 907
360 915
362 915
363 915
366 1052
367 551
368 551
369 551
370 551
371 551
372 551
373 551
374 551
375 1022
376 551
377 378
377 379
377 912
380 551
381 902
382 551
383 929
384 551
385 551
386 551
387 1030
388 989
389 551
390 551
391 551
392 551
393 551
394 906
395 890
396 1036
397 551
398 551
399 551
400 551
401 551
402 1042
403 551
404 551
405 551
406 979
407 943
408 551
409 551
410 551
411 1012
412 413
412 1055
413 414
415 1061
416 551
417 551
418 1001
419 1001
420 551
421 960
422 973
423 551
424 901
425 551
426 551
427 551
428 551
429 551
430 551
431 551
432 551
433 551
434 551
435 551
436 551
437 551
438 994
439 551
440 551
441 551
442 925
443 1062
444 551
445 551
446 551
447 551
448 551
449 1032
450 905
451 452
451 908
453 551
454 551
455 551
456 551
457 458
457 459
457 460
457 461
457 462
457 463
457 464
457 898
465 551
466 551
467 551
468 936
469 551
470 988
471 1025
472 928
473 551
474 551
475 551
476 551
477 551
478 551
479 1018
480 551
481 551
482 1055
483 926
484 551
485 551
486 551
487 993
488 551
489 551
490 551
491 1041
492 551
493 551
494 551
495 551
496 984
497 551
498 551
499 911
500 551
501 948
502 551
503 1004
504 551
505 1053
506 507
506 508
506 509
506 1019
510 985
511 946
512 551
513 972
514 976
515 551
516 551
517 551
518 551
519 520
519 521
519 999
522 942
523 1061
524 981
525 1039
526 551
527 977
528 953
529 939
530 551
531 938
532 551
533 551
534 551
535 1006
536 551
537 961
538 551
539 551
540 551
541 551
542 913
543 551
544 551
545 1021
546 924
547 551
548 938
549 551
550 913
551 552
551 553
551 554
551 555
551 558
551 561
551 562
551 564
551 565
551 566
551 567
551 569
551 570
551 572
551 573
551 574
551 575
551 578
551 579
551 587
551 588
551 589
551 591
551 592
551 595
551 597
551 598
551 600
551 602
551 603
551 604
551 607
551 608
551 609
551 612
551 613
551 614
551 616
551 617
551 618
551 619
551 621
551 622
551 623
551 625
551 627
551 628
551 629
551 630
551 631
551 633
551 634
551 635
551 637
551 639
551 640
551 641
551 642
551 644
551 646
551 647
551 649
551 651
551 653
551 654
551 656
551 657
551 661
551 662
551 666
551 667
551 668
551 669
551 670
551 671
551 672
551 676
551 679
551 680
551 681
551 683
551 684
551 685
551 686
551 687
551 688
551 689
551 691
551 692
551 695
551 698
551 699
551 700
551 702
551 706
551 709
551 711
551 713
551 714
551 715
551 716
551 717
551 718
551 720
551 722
551 723
551 726
551 727
551 728
551 729
551 730
551 731
551 883
551 884
551 1043
551 1059
551 1060
551 1063
556 950
557 1050
559 1034
560 1029
563 1036
568 900
571 1005
576 577
576 1048
580 966
581 1059
582 583
582 584
582 585
582 586
582 933
590 969
593 1051
594 1004
596 962
599 993
601 975
605 962
606 1016
610 975
611 1000
615 1041
620 929
624 1020
626 1029
632 947
636 973
638 949
643 925
645 981
648 949
650 1021
652 1000
655 974
658 1010
659 951
660 986
663 990
664 889
665 985
673 1038
674 1020
675 888
677 941
678 937
682 967
690 897
693 1042
694 1063
696 982
697 966
701 1011
703 1028
704 1022
705 986
707 992
708 953
710 927
712 1038
719 1058
721 968
724 725
724 1058
732 733
732 798
734 735
735 871
736 1065
737 1066
738 1064
739 1066
740 815
741 816
742 816
743 816
744 817
745 746
746 806
747 750
748 749
748 750
750 751
750 831
752 801
753 754
753 823
755 839
756 757
756 839
758 838
759 824
760 820
761 820
762 829
763 820
764 829
765 832
766 767
766 768
766 769
766 832
770 771
770 772
770 832
773 774
773 775
773 832
776 832
777 832
778 832
779 832
780 832
781 782
781 783
781 836
784 785
784 786
784 832
787 832
788 835
789 790
789 791
789 792
789 793
789 794
789 836
795 796
795 1064
796 797
796 883
797 798
798 799
799 800
799 845
800 801
800 840
801 802
801 818
801 837
802 803
802 815
803 804
803 814
804 805
804 813
805 806
806 807
807 808
808 809
809 810
810 811
811 812
815 816
815 817
818 819
818 831
819 820
819 830
820 821
820 823
821 822
823 824
823 829
824 825
824 828
825 826
825 827
831 832
832 833
833 834
834 835
835 836
837 838
838 839
840 841
841 842
842 843
842 844
845 846
846 847
846 882
847 848
848 849
848 870
849 850
850 851
851 852
852 853
853 854
853 868
854 855
855 856
855 867
856 857
856 864
857 858
858 859
859 860
859 862
860 861
862 863
864 865
865 866
868 869
870 871
872 873
872 877
873 874
874 875
875 876
877 878
879 880
880 881
884 885
884 1023
885 886
885 1013
886 887
886 1012
887 888
887 1008
888 889
889 890
890 891
891 892
891 954
892 893
892 950
893 894
893 916
894 895
894 907
895 896
895 904
896 897
897 898
898 899
899 900
900 901
901 902
902 903
904 905
904 906
907 908
908 909
909 910
910 911
910 914
911 912
912 913
916 917
916 930
917 918
918 919
918 928
919 920
919 927
920 921
921 922
921 926
922 923
922 925
923 924
928 929
930 931
930 944
931 932
932 933
932 939
933 934
934 935
934 938
935 936
936 937
939 940
940 941
940 943
941 942
944 945
944 949
945 946
945 947
947 948
950 951
951 952
952 953
954 955
954 1005
955 956
955 995
956 957
956 980
957 958
957 976
958 959
958 970
959 960
959 963
960 961
961 962
963 964
963 969
964 965
964 967
965 966
967 968
970 971
970 974
971 972
971 973
974 975
976 977
977 978
978 979
980 981
980 991
981 982
982 983
983 984
983 987
983 989
984 985
984 986
987 988
989 990
991 992
991 994
992 993
995 996
995 1003
996 997
996 1002
997 998
997 1001
998 999
999 1000
1003 1004
1005 1006
1006 1007
1008 1009
1008 1011
1009 1010
1013 1014
1014 1015
1014 1022
1015 1016
1015 1021
1016 1017
1017 1018
1017 1019
1019 1020
1023 1024
1023 1042
1024 1025
1024 1031
1025 1026
1026 1027
1027 1028
1027 1030
1028 1029
1031 1032
1031 1041
1032 1033
1033 1034
1033 1039
1034 1035
1035 1036
1035 1037
1037 1038
1039 1040
1043 1044
1043 1056
1044 1045
1044 1053
1045 1046
1045 1052
1046 1047
1046 1051
1047 1048
1048 1049
1049 1050
1053 1054
1054 1055
1056 1057
1057 1058
1060 1061
1060 1062
1064 1065
1065 1066
