# Falconiformes clade from the Open Tree of Life; 281 nodes, 280 edges; canonical sorted order
0 1
1 169
2 8
3 8
4 8
5 8
6 8
7 8
8 9
8 10
8 169
11 13
12 13
13 14
13 240
14 15
16 148
16 259
17 18
18 247
19 111
20 111
21 111
22 224
23 273
24 111
25 227
26 274
27 111
28 111
29 225
30 34
31 34
32 34
33 34
34 35
34 257
36 111
37 111
38 111
39 111
40 111
41 42
42 224
43 46
44 46
45 46
46 256
47 49
48 49
49 269
50 111
51 111
52 55
53 55
54 55
55 56
55 275
57 265
58 111
59 266
60 111
61 111
62 111
63 268
64 274
65 111
66 111
67 111
68 264
69 111
70 111
71 232
72 73
72 270
74 111
75 111
76 111
77 111
78 111
79 111
80 111
81 111
82 231
83 111
84 111
85 111
86 111
87 111
88 260
89 111
90 111
91 111
92 111
93 111
94 111
95 263
96 111
97 111
98 111
99 229
100 111
101 278
102 111
103 111
104 276
105 227
106 111
107 111
108 270
109 111
110 111
111 128
111 129
111 130
111 131
111 133
111 134
111 135
111 136
111 143
111 144
111 146
111 153
111 154
111 155
111 162
111 163
111 166
111 167
111 259
111 269
111 276
112 113
113 114
113 233
115 123
116 123
117 123
118 123
119 123
120 123
121 123
122 123
123 124
123 125
123 126
123 127
123 233
132 226
137 268
138 277
139 223
140 142
141 142
142 257
145 267
147 148
148 149
150 151
150 266
152 260
156 159
157 159
158 159
159 160
159 161
159 223
164 165
164 273
168 261
169 170
169 172
169 174
169 219
169 221
169 237
169 248
171 172
173 174
174 175
176 177
177 248
178 179
179 241
180 187
181 253
182 187
183 250
184 187
185 251
186 253
187 188
187 248
187 249
187 252
189 250
190 251
191 252
192 193
193 236
194 202
195 197
196 197
197 202
198 238
199 238
200 236
201 202
202 234
202 235
203 242
204 242
205 247
206 207
207 244
208 246
209 243
210 246
211 245
212 243
213 258
214 215
214 234
216 217
217 239
218 219
220 221
222 225
222 270
222 275
223 280
224 280
225 228
226 227
226 279
228 229
228 261
229 230
230 231
230 255
231 232
232 233
234 254
235 236
235 238
237 239
237 254
239 240
240 241
241 242
242 243
242 247
243 244
244 245
245 246
249 250
249 251
252 253
254 258
255 256
255 260
256 257
258 259
261 262
262 263
262 267
263 264
264 265
265 266
267 268
269 271
271 272
271 275
272 273
272 274
276 277
277 278
278 279
279 280
