# Gadiformes clade from the Open Tree of Life; 921 nodes, 920 edges; canonical sorted order
0 1
0 795
2 3
3 4
3 846
5 7
6 7
7 899
8 9
9 10
9 455
11 12
11 547
13 27
13 300
13 840
14 27
15 804
16 27
17 27
18 27
19 27
20 804
21 27
22 27
23 791
24 791
25 27
26 27
27 28
27 29
27 791
27 804
30 31
30 899
32 43
33 43
34 43
35 43
36 43
37 43
38 43
39 43
40 43
41 43
42 43
43 44
43 45
43 46
43 47
43 48
48 286
49 50
50 888
51 893
52 53
52 455
54 56
55 56
56 455
57 779
58 59
59 60
59 61
59 881
62 824
63 900
64 824
65 824
66 824
67 824
68 824
69 920
70 824
71 824
72 824
73 824
74 857
75 824
76 824
77 857
78 856
79 908
80 824
81 82
82 830
83 824
84 824
85 825
86 824
87 824
88 824
89 824
90 824
91 824
92 824
93 824
94 824
95 824
96 773
97 824
98 824
99 824
100 851
101 908
102 775
103 824
104 824
105 829
106 900
107 824
108 824
109 824
110 824
111 824
112 824
113 824
114 771
115 824
116 824
117 876
118 917
119 916
120 876
121 774
122 824
123 885
124 916
125 824
126 824
127 824
128 824
129 772
130 919
131 824
132 824
133 824
134 830
135 860
136 824
137 824
138 824
139 824
140 824
141 824
142 824
143 824
144 775
145 824
146 824
147 824
148 824
149 824
150 896
151 874
152 824
153 824
154 824
155 843
156 824
157 827
158 920
159 824
160 824
161 824
162 824
163 826
164 824
165 824
166 824
167 824
168 824
169 851
170 918
171 824
172 824
173 824
174 824
175 824
176 824
177 824
178 824
179 824
180 824
181 824
182 824
183 824
184 824
185 824
186 824
187 795
188 779
189 785
190 779
191 779
192 779
193 801
194 779
195 779
196 779
197 779
198 779
199 779
200 779
201 779
202 803
203 779
204 779
205 793
206 779
207 779
208 779
209 779
210 779
211 802
212 779
213 779
214 793
215 779
216 787
217 779
218 779
219 779
220 800
221 799
222 779
223 779
224 794
225 779
226 783
227 788
228 779
229 803
230 779
231 779
232 779
233 779
234 779
235 784
236 779
237 779
238 788
239 799
240 779
241 785
242 779
243 796
244 779
245 779
246 779
247 796
248 779
249 779
250 779
251 802
252 787
253 254
253 790
255 257
256 257
257 455
258 259
259 547
260 262
261 262
262 898
263 264
264 881
265 266
266 547
267 268
267 877
268 269
270 832
271 832
272 832
273 832
274 837
275 834
276 832
277 832
278 832
279 832
280 832
281 832
282 832
283 284
283 285
285 905
286 770
287 300
288 300
289 300
290 300
291 300
292 300
293 300
294 300
295 300
296 300
297 300
298 300
299 300
300 301
302 304
303 304
304 309
304 310
304 894
305 893
306 307
307 897
308 895
311 895
312 893
313 325
313 880
313 881
314 883
315 325
316 884
317 325
318 883
319 325
320 325
321 325
322 325
323 325
324 325
325 326
325 327
325 328
325 882
329 884
330 336
331 336
332 336
333 336
334 336
335 336
336 337
336 842
338 340
339 340
340 853
341 342
342 455
343 344
343 345
343 346
343 347
343 348
343 349
343 350
343 351
343 352
343 353
343 354
343 355
343 356
343 357
343 358
343 359
343 360
343 361
343 362
343 363
343 364
343 365
343 366
343 367
343 368
343 369
343 370
343 371
343 372
343 373
343 374
343 375
343 819
376 377
377 455
378 379
379 719
380 387
381 387
382 387
383 387
384 387
385 387
386 387
387 388
387 455
389 393
390 393
391 393
392 393
393 394
393 395
393 455
396 407
397 407
398 407
399 407
400 407
401 407
402 407
403 407
404 407
405 407
406 407
407 408
407 409
407 410
407 411
407 412
407 413
407 854
414 852
415 852
416 850
417 849
418 849
419 850
420 422
421 422
422 846
422 847
422 852
423 847
424 425
425 455
426 427
427 428
428 886
429 430
430 431
430 432
430 433
430 434
430 855
435 886
436 443
437 443
438 443
439 443
440 443
441 443
442 443
443 444
443 445
443 819
446 447
447 501
448 449
449 450
449 501
451 452
451 455
453 820
454 820
455 489
455 530
455 559
455 560
455 562
455 563
455 564
455 566
455 567
455 568
455 569
455 570
455 571
455 572
455 573
455 575
455 576
455 577
455 578
455 579
455 580
455 581
455 582
455 583
455 584
455 585
455 588
455 589
455 592
455 593
455 594
455 595
455 596
455 597
455 599
455 600
455 602
455 603
455 604
455 605
455 606
455 607
455 608
455 609
455 610
455 611
455 612
455 613
455 675
455 680
455 695
455 702
455 806
455 818
455 819
455 821
455 822
456 457
457 458
458 704
458 859
459 466
460 777
461 466
462 466
463 466
464 777
465 466
466 467
466 468
466 776
466 838
469 776
470 474
471 474
472 474
473 474
474 501
475 476
475 477
475 478
475 479
475 480
475 481
475 482
475 483
475 811
484 489
485 489
486 489
487 489
488 489
489 490
491 492
492 901
493 496
493 805
494 496
495 496
496 497
496 498
499 500
500 901
501 518
501 778
502 875
503 872
504 518
505 506
506 507
506 873
508 867
509 863
510 518
511 512
512 513
512 871
514 518
515 872
516 875
517 864
518 520
518 526
518 527
518 862
518 867
519 866
521 522
522 523
522 866
524 869
525 864
528 530
529 530
531 898
532 897
533 534
534 535
534 537
536 537
537 538
537 905
539 907
540 543
541 907
542 543
543 887
543 907
544 545
544 853
546 547
547 618
547 690
547 710
547 828
547 831
547 844
548 549
548 556
548 615
549 858
550 556
551 556
552 556
553 556
554 556
555 556
556 557
556 558
561 815
565 823
574 817
586 816
587 816
590 817
591 815
598 818
601 818
614 615
616 618
617 618
619 620
620 811
621 624
621 625
621 879
621 909
622 910
623 910
626 832
627 832
628 832
629 832
630 832
631 833
632 832
633 832
634 832
635 832
636 832
637 832
638 835
639 832
640 832
641 832
642 832
643 836
644 832
645 832
646 832
647 832
648 832
649 832
650 832
651 832
652 832
653 836
654 832
655 832
656 832
657 832
658 832
659 832
660 832
661 837
662 832
663 832
664 832
665 832
666 832
667 832
668 832
669 832
670 672
671 672
672 673
672 674
672 890
675 676
677 680
678 680
679 680
680 681
680 682
683 686
684 686
685 686
686 855
687 688
687 878
689 690
691 695
692 695
693 695
694 695
695 696
695 697
698 702
699 702
700 702
701 702
703 704
705 706
706 707
706 708
708 821
709 710
711 713
712 713
713 714
713 715
713 716
713 717
713 718
713 812
719 725
719 859
720 725
721 725
722 725
723 725
724 725
725 726
725 727
728 729
729 730
729 842
731 904
732 903
733 736
734 735
735 904
736 902
736 903
737 913
738 912
739 743
740 743
741 914
742 743
743 909
743 911
744 914
745 911
746 807
747 807
748 807
749 807
750 809
751 807
752 810
753 809
754 807
755 807
756 807
757 807
758 807
759 807
760 807
761 807
762 807
763 807
764 807
765 808
766 807
767 807
768 807
769 807
770 778
770 877
771 772
771 861
772 773
773 774
774 775
776 777
778 805
779 780
779 822
780 781
780 797
781 782
781 789
782 783
782 786
783 784
784 785
786 787
786 788
789 790
789 796
790 792
792 793
792 794
794 795
797 798
797 803
798 799
798 800
800 801
801 802
805 820
806 807
806 812
807 808
807 810
808 809
810 811
812 813
813 814
813 817
814 815
814 816
820 828
820 858
821 840
822 823
823 824
824 825
824 838
825 826
826 827
827 829
828 840
829 830
831 832
831 842
832 833
832 837
833 834
834 835
835 836
838 839
839 841
839 860
841 843
841 856
843 851
844 845
844 854
845 846
845 853
847 848
848 849
848 850
854 855
856 857
858 859
860 861
861 865
862 863
862 866
863 864
865 870
865 906
867 868
868 869
868 873
869 871
870 874
870 885
871 872
873 875
874 876
877 878
878 879
879 880
880 886
882 883
882 884
885 896
886 887
887 888
888 889
889 890
889 902
890 891
891 892
891 901
892 893
892 899
893 894
893 897
894 895
896 900
897 898
902 905
903 904
906 908
906 915
909 910
911 912
912 913
913 914
915 916
915 917
917 918
918 919
919 920
