# Lagomorpha clade from the Open Tree of Life; 222 nodes, 221 edges; canonical sorted order
0 1
1 9
2 3
3 9
4 5
5 9
6 9
6 163
6 172
7 9
8 9
9 66
9 95
9 167
9 169
9 171
9 178
9 184
9 213
10 66
11 66
12 66
13 66
14 66
15 66
16 66
17 19
18 19
19 66
20 21
21 22
21 66
23 66
24 66
25 28
26 28
27 28
28 29
28 66
30 66
31 66
32 66
33 66
34 66
35 66
36 66
37 66
38 66
39 66
40 66
41 42
42 66
43 66
44 66
45 66
46 66
47 66
48 66
49 66
50 66
51 66
52 66
53 66
54 66
55 66
56 66
57 66
58 66
59 66
60 66
61 62
62 63
62 66
64 66
65 66
66 67
66 68
66 69
66 70
66 71
66 72
66 73
66 74
66 75
66 76
66 77
66 78
66 79
66 80
66 82
66 84
66 86
66 87
66 88
66 89
66 90
66 91
66 92
66 93
80 81
83 84
84 85
94 95
95 96
97 98
97 139
99 139
100 139
101 139
102 103
103 139
104 106
105 106
106 107
106 139
108 139
109 139
110 111
111 139
112 114
113 114
114 139
115 139
116 139
117 139
118 139
119 139
120 139
121 139
122 139
123 124
123 139
125 139
126 139
127 139
128 139
129 139
130 132
131 132
132 139
133 139
134 139
135 139
136 138
137 138
138 139
139 142
139 145
139 146
139 149
139 150
139 151
139 152
139 153
139 154
139 155
139 157
139 160
139 161
139 162
139 163
140 142
141 142
142 143
142 144
146 147
146 148
156 157
157 158
157 159
164 166
165 166
166 167
168 169
170 171
172 174
173 174
174 175
176 178
177 178
178 179
178 180
178 181
178 182
183 184
185 213
186 213
187 213
188 213
189 190
190 213
191 195
192 195
193 195
194 195
195 196
195 213
197 199
198 199
199 213
200 213
201 213
202 213
203 213
204 205
205 213
206 213
207 213
208 213
209 213
210 213
211 213
212 213
213 214
213 215
213 216
213 217
213 218
213 219
213 220
213 221
