# Mantodea clade from the Open Tree of Life; 3378 nodes, 3377 edges; canonical sorted order
0 1
0 29
0 59
0 319
0 1476
0 1693
0 1830
0 2814
0 3265
1 2
1 3
1 4
1 5
1 6
1 7
1 8
1 9
1 10
1 11
1 13
1 14
1 15
1 16
1 17
1 18
1 19
1 20
1 22
1 710
1 1710
1 2401
1 3268
1 3269
12 3268
21 3269
23 24
23 3218
25 26
26 3218
27 28
28 3218
29 52
29 2547
30 52
31 52
32 52
33 52
34 52
35 52
36 52
37 52
38 52
39 52
40 52
41 52
42 52
43 52
44 52
45 52
46 52
47 52
48 52
49 52
50 52
51 52
52 53
52 54
52 55
52 56
52 57
52 58
59 449
60 3292
61 3292
62 3292
63 3292
64 3292
65 3292
66 3292
67 3292
68 3315
69 3292
70 3292
71 3292
72 3317
73 3292
74 3292
75 3292
76 3292
77 3292
78 3292
79 3292
80 3292
81 3230
82 3319
83 3319
84 88
85 88
86 88
87 88
88 89
88 90
88 91
88 3065
92 93
93 3218
94 99
95 99
96 99
97 99
98 99
99 3169
100 102
101 102
102 3218
103 104
104 3345
105 106
106 3218
107 122
108 122
109 122
110 122
111 122
112 122
113 122
114 122
115 122
116 122
117 122
118 122
119 122
120 122
121 122
122 123
122 125
122 127
122 128
122 130
122 3234
122 3235
124 3235
126 3236
129 3236
131 132
131 133
131 3310
134 156
135 156
136 156
137 156
138 156
139 156
140 156
141 156
142 156
143 156
144 156
145 156
146 156
147 156
148 156
149 156
150 156
151 156
152 156
153 156
154 156
155 156
156 157
156 158
156 159
156 160
156 161
156 162
156 163
156 164
156 3310
165 506
165 3185
166 3172
167 3172
168 3179
169 3172
170 3185
171 3172
172 3177
173 3172
174 3172
175 3172
176 3172
177 3172
178 3172
179 3172
180 3172
181 3172
182 3172
183 3172
184 3172
185 3172
186 3172
187 3172
188 3172
189 3172
190 3172
191 3172
192 3172
193 3172
194 3172
195 3172
196 3172
197 3172
198 3172
199 3172
200 3172
201 3172
202 3172
203 3172
204 3172
205 3172
206 3172
207 3172
208 3179
209 3184
210 3192
211 3172
212 3192
213 3172
214 3172
215 3172
216 3172
217 3172
218 3172
219 3172
220 3172
221 222
221 3218
223 226
224 226
225 226
226 227
226 2446
228 234
229 234
230 234
231 234
232 234
233 234
234 235
234 236
234 3305
237 242
238 242
239 242
240 242
241 242
242 243
242 244
242 245
242 246
242 247
242 3339
248 259
249 259
250 259
251 259
252 259
253 259
254 259
255 259
256 259
257 259
258 259
259 260
259 261
259 262
259 263
259 264
259 265
259 266
259 267
259 3169
268 269
268 3153
270 1336
270 3218
271 272
272 273
272 274
272 275
272 3200
276 277
276 3218
278 281
279 281
280 281
281 282
281 3218
283 285
284 285
285 3310
286 287
287 333
288 294
288 327
288 3359
289 294
290 294
291 294
292 294
293 294
294 295
294 296
294 297
294 298
299 300
300 3310
301 305
302 305
303 305
304 305
305 306
305 307
305 308
305 3218
309 310
310 3218
311 312
312 3218
313 314
313 315
313 3218
316 317
317 3218
318 319
320 3328
321 3328
322 3328
323 3328
324 3328
325 3328
326 3328
327 328
327 329
330 331
331 332
331 3218
333 1651
334 340
335 340
336 340
337 340
338 340
339 340
340 341
340 342
340 343
340 344
340 3251
345 348
346 348
347 348
348 349
348 350
348 3218
351 352
351 3218
353 356
354 356
355 356
356 3064
357 359
358 359
359 3218
360 361
361 3242
362 365
363 365
364 365
365 366
365 367
365 3350
368 370
369 370
370 371
370 372
370 373
370 795
374 376
374 795
374 1414
375 376
377 380
378 380
379 380
380 381
380 382
380 383
380 3267
384 385
384 386
384 387
384 388
384 389
384 390
384 3151
391 397
392 3281
393 397
394 397
395 397
396 397
397 3279
397 3281
398 3281
399 401
400 401
401 402
401 3310
403 406
404 406
405 406
406 407
406 3218
408 410
409 410
410 411
410 3310
412 414
413 414
414 838
415 420
416 420
417 420
418 420
419 420
420 421
420 422
420 423
420 3276
424 433
425 433
426 433
427 433
428 433
429 433
430 433
431 433
432 433
433 434
433 435
433 436
433 437
433 438
433 439
433 440
433 441
433 3064
442 446
443 446
444 446
445 446
446 447
446 3310
448 449
450 451
451 2761
452 453
452 3218
454 457
455 457
456 457
457 458
457 459
457 460
457 461
457 462
457 3226
463 466
464 466
465 466
466 467
466 468
466 469
466 470
466 3363
471 474
472 474
473 474
474 475
474 476
474 477
474 3271
478 480
479 480
480 3260
481 483
482 483
483 484
483 3218
485 490
486 490
487 490
488 490
489 490
490 491
490 492
490 3218
493 495
494 495
495 496
495 3310
497 498
497 3218
499 500
500 3218
501 506
502 506
503 506
504 506
505 506
507 509
508 509
509 2307
510 513
511 513
512 513
513 514
513 515
513 3326
516 522
517 522
518 522
519 522
520 522
521 522
522 523
522 524
524 1651
524 3121
525 526
525 3310
527 528
527 3065
529 531
530 531
531 532
531 533
531 3296
534 535
535 3335
536 537
537 538
537 3222
539 541
540 541
541 542
541 543
541 3218
544 546
544 3162
545 546
546 547
546 548
546 549
546 550
551 552
552 796
553 554
553 3218
555 557
556 557
557 558
557 3345
559 560
560 561
560 562
560 3247
563 565
564 565
565 2282
566 3306
567 3306
568 3306
569 3306
570 3308
571 3306
572 3306
573 575
574 575
575 3189
576 577
577 3318
578 585
579 585
580 585
581 585
582 585
583 585
584 585
585 586
585 587
585 3241
588 592
589 592
590 592
591 592
592 3252
593 594
594 3218
595 598
596 598
597 598
598 599
598 600
598 601
598 3218
602 615
603 615
604 615
605 615
606 615
607 615
608 615
609 615
610 615
611 615
612 615
613 615
614 615
615 616
615 617
615 2264
618 622
619 622
620 622
621 622
622 3187
623 624
624 3218
625 637
626 637
627 637
628 637
629 637
630 637
631 637
632 637
633 637
634 637
635 637
636 637
637 638
637 639
637 640
637 641
637 642
637 643
637 644
637 645
637 646
637 647
637 3276
648 649
649 3310
650 651
651 3218
652 653
653 3218
654 671
655 671
656 671
657 671
658 671
659 671
660 671
661 671
662 671
663 671
664 671
665 671
666 671
667 3336
668 671
669 671
670 671
671 672
671 673
671 675
671 676
671 677
671 3333
671 3336
674 3336
678 680
678 1651
679 680
681 684
682 684
683 684
684 3178
685 697
686 697
687 697
688 697
689 697
690 697
691 697
692 697
693 697
694 697
695 697
696 697
697 698
697 699
697 700
697 3173
701 704
702 704
703 704
704 838
705 710
706 710
707 710
708 710
709 710
710 711
710 712
710 713
714 721
715 721
716 721
717 721
718 721
719 721
720 721
721 722
721 723
721 724
721 3228
725 727
726 727
727 3228
728 729
729 3310
730 738
730 2404
730 3180
731 738
732 738
733 738
734 738
735 738
736 738
737 738
738 739
738 741
738 743
738 3181
740 3182
742 3182
744 3181
745 746
746 747
746 3218
748 749
749 3211
750 751
751 795
752 753
753 3218
754 757
755 3219
756 3219
757 758
757 759
757 3215
757 3219
760 761
761 3310
762 763
763 764
763 765
765 3247
766 769
767 769
768 769
769 3161
770 773
771 773
772 773
773 774
773 775
773 776
773 777
773 3218
778 780
779 780
780 781
780 3243
782 787
783 787
784 787
785 787
786 787
787 788
787 789
787 790
787 791
787 792
787 793
787 794
787 3342
795 796
795 1172
795 1410
795 3298
796 1418
796 3342
797 798
798 799
798 3310
800 3287
801 3287
802 3287
803 3287
804 3287
805 3290
806 3287
807 3287
808 3287
809 3287
810 3287
811 3287
812 3287
813 3287
814 3287
815 3287
816 3287
817 3311
818 3287
819 3287
820 3287
821 3287
822 3287
823 3287
824 3287
825 3287
826 3287
827 828
827 829
827 3344
830 832
831 832
832 833
832 3283
834 836
835 836
836 837
836 838
838 2304
838 3340
839 842
840 842
841 842
842 843
842 844
842 845
842 3329
846 847
847 3320
848 850
849 850
850 3216
851 852
851 3310
853 901
854 901
855 901
856 901
857 901
858 901
859 901
860 901
861 901
862 901
863 901
864 901
865 901
866 901
867 901
868 901
869 901
870 901
871 901
872 901
873 901
874 901
875 901
876 901
877 901
878 901
879 901
880 901
881 901
882 901
883 901
884 901
885 901
886 901
887 901
888 901
889 901
890 901
891 901
892 901
893 901
894 901
895 901
896 901
897 901
898 901
899 901
900 901
901 902
901 903
901 904
901 905
901 906
901 907
901 908
901 909
901 910
901 911
901 912
901 913
901 914
901 915
901 916
901 917
901 918
901 919
901 920
901 921
901 922
901 923
901 924
901 925
901 926
926 1206
926 3220
927 929
928 929
929 2639
930 931
931 3218
932 938
933 938
934 938
935 938
936 938
937 938
938 939
938 940
938 941
938 942
938 3183
943 944
943 3249
945 947
946 947
947 948
947 2446
949 951
950 951
951 952
951 3262
953 954
954 955
954 956
954 3064
957 958
958 3310
959 962
960 962
961 962
962 3218
963 966
964 966
965 966
966 967
966 968
966 969
966 3310
970 972
971 972
972 973
972 3310
974 975
974 3310
976 977
977 978
977 979
977 3218
980 1029
981 1029
982 1029
983 1029
984 1029
985 1029
986 1029
987 1029
988 1029
989 1029
990 1029
991 1029
992 1029
993 1029
994 1029
995 1029
996 1029
997 1029
998 1029
999 1029
1000 1029
1001 1029
1002 1029
1003 1029
1004 1029
1005 1029
1006 1029
1007 1029
1008 1029
1009 1029
1010 1029
1011 1029
1012 1029
1013 1029
1014 1029
1015 1029
1016 1029
1017 1029
1018 1029
1019 1029
1020 1029
1021 1029
1022 1029
1023 1029
1024 1029
1025 1029
1026 1029
1027 1029
1028 1029
1029 1030
1029 1031
1029 1032
1029 1033
1029 1034
1029 1035
1029 1036
1029 1037
1029 1038
1029 1039
1029 1040
1029 1041
1029 1042
1029 1043
1029 1044
1029 1045
1029 1046
1029 3202
1047 1050
1048 1050
1049 1050
1050 1051
1050 1052
1050 3186
1053 1055
1054 1055
1055 3218
1056 1057
1057 3218
1058 1059
1058 3310
1060 1061
1060 3229
1062 1066
1063 1066
1064 1066
1065 1066
1066 3243
1067 1070
1068 1070
1069 1070
1070 1071
1070 1072
1070 3218
1073 1074
1074 3218
1075 1076
1075 1077
1075 1078
1075 3342
1079 1083
1080 1083
1081 1083
1082 1083
1083 1084
1083 1085
1083 1086
1083 3238
1087 1100
1088 1100
1089 1100
1090 1100
1091 1100
1092 1100
1093 1100
1094 1100
1095 1100
1096 1100
1097 1100
1098 1100
1099 1100
1100 1101
1100 1102
1100 3337
1103 1104
1104 3218
1105 1106
1106 1107
1106 3240
1108 1109
1109 3218
1110 1112
1111 1112
1112 1113
1112 3252
1114 1122
1115 1122
1116 1122
1117 1122
1118 1122
1119 1122
1120 1122
1121 1122
1122 1123
1122 1124
1122 1125
1122 1126
1126 3231
1127 1129
1128 1129
1129 1130
1129 1131
1129 1132
1129 3275
1133 1134
1134 3218
1135 1136
1136 3310
1137 1144
1138 1139
1139 1144
1140 1144
1141 1144
1142 1144
1143 1144
1144 1145
1144 3279
1146 3233
1147 3233
1148 3233
1149 3233
1150 3234
1151 3233
1152 3233
1153 3233
1154 1155
1155 3310
1156 1158
1157 1158
1158 1159
1158 3296
1160 1161
1160 3310
1162 1163
1163 1164
1163 3310
1165 1166
1166 3310
1167 1168
1168 3310
1169 1170
1170 3310
1171 1172
1173 3328
1174 3328
1175 3328
1176 3328
1177 3330
1178 3328
1179 3329
1180 3328
1181 3330
1182 3328
1183 3328
1184 3328
1185 1191
1186 1191
1187 1191
1188 1191
1189 1191
1190 1191
1191 1192
1191 1193
1191 1194
1191 1195
1191 1196
1191 1197
1197 3217
1198 1200
1199 1200
1200 1201
1200 1202
1200 2029
1203 1206
1204 1206
1205 1206
1206 1207
1208 1209
1208 3218
1210 1213
1211 1213
1212 1213
1213 1214
1213 2282
1215 3356
1216 3356
1217 3356
1218 3356
1219 3356
1220 3356
1221 3356
1222 3356
1223 3356
1224 3356
1225 3356
1226 3356
1227 3356
1228 3356
1229 3356
1230 3356
1231 3356
1232 3356
1233 3356
1234 3356
1235 3356
1236 3356
1237 3356
1238 3356
1239 3356
1240 3356
1241 3356
1242 3356
1243 3356
1244 3356
1245 3356
1246 3356
1247 3356
1248 3356
1249 3356
1250 3356
1251 3356
1252 3356
1253 3356
1254 3356
1255 3356
1256 3356
1257 3356
1258 3356
1259 3356
1260 3356
1261 3356
1262 3356
1263 3356
1264 3356
1265 3356
1266 3356
1267 3356
1268 3356
1269 3356
1270 3356
1271 3356
1272 3356
1273 3356
1274 3356
1275 3356
1276 3356
1277 3356
1278 3356
1279 3356
1280 3356
1281 3356
1282 3356
1283 3356
1284 3356
1285 3356
1286 3356
1287 3356
1288 3356
1289 3356
1290 3356
1291 3356
1292 3356
1293 3356
1294 3356
1295 3356
1296 3356
1297 3356
1298 3368
1299 3356
1300 3356
1301 3356
1302 3356
1303 3356
1304 3365
1305 3367
1306 3366
1307 3356
1308 3356
1309 3356
1310 3356
1311 3356
1312 3356
1313 3356
1314 3356
1315 3356
1316 3356
1317 3356
1318 3356
1319 3356
1320 3356
1321 3356
1322 3356
1323 3356
1324 3356
1325 3356
1326 3356
1327 3356
1328 3356
1329 3360
1330 3361
1331 3360
1332 3360
1333 1334
1333 3218
1335 1336
1337 1363
1338 1363
1339 1363
1340 1363
1341 1363
1342 1363
1343 1363
1344 1363
1345 1363
1346 1363
1347 1363
1348 1363
1349 1363
1350 1363
1351 1363
1352 1363
1353 1363
1354 1363
1355 1363
1356 1363
1357 1363
1358 1363
1359 1363
1360 1363
1361 1363
1362 1363
1363 1364
1363 1365
1363 1366
1363 1367
1363 1368
1363 1369
1363 1370
1363 1375
1363 1376
1363 1377
1363 1378
1363 1379
1363 1382
1363 3195
1363 3196
1371 3196
1372 3196
1373 3195
1374 3195
1380 1381
1381 1382
1382 3294
1383 1384
1383 1385
1383 1386
1383 1387
1383 1388
1383 1389
1383 1390
1383 1391
1383 1392
1383 1393
1383 1394
1383 1395
1383 1396
1383 1397
1383 1398
1383 3240
1399 1402
1400 1402
1401 1402
1402 1403
1402 1404
1402 3222
1405 1406
1405 1407
1405 1408
1405 3338
1409 1410
1411 1412
1412 2328
1412 2329
1412 2330
1412 2331
1412 2332
1412 2333
1412 3222
1413 1414
1415 1418
1416 1418
1417 1418
1418 1419
1420 1421
1421 1422
1421 3310
1423 1424
1424 3267
1425 1426
1426 3183
1427 1428
1428 3218
1429 1430
1430 3310
1431 1432
1431 1433
1431 1434
1431 1435
1431 1436
1431 1437
1431 1438
1431 1439
1431 1440
1431 1441
1431 1442
1431 1443
1431 1444
1431 1445
1431 3217
1446 1454
1447 1454
1448 1454
1449 1454
1450 1454
1451 1454
1452 1454
1453 1454
1454 1455
1454 1456
1454 1457
1454 1458
1454 3218
1459 1460
1459 1461
1459 1462
1459 1463
1459 1464
1459 1465
1459 1466
1459 1467
1459 1468
1459 1469
1459 1470
1459 3322
1471 1472
1472 1473
1472 3245
1474 1476
1475 1476
1477 1481
1478 1481
1479 1481
1480 1481
1481 1482
1481 1483
1481 1484
1481 3176
1485 3289
1486 1493
1487 1493
1488 1493
1489 1493
1490 1493
1491 1493
1492 1493
1493 1494
1493 1495
1493 1498
1493 1499
1493 1500
1493 3167
1493 3288
1496 3289
1497 3288
1501 1503
1502 1503
1503 2446
1504 1505
1505 3310
1506 1507
1506 1508
1506 1509
1506 1511
1506 1512
1506 1513
1506 1514
1506 1515
1506 1516
1506 1517
1506 1518
1506 1519
1506 1520
1506 1521
1506 1522
1506 1523
1506 1524
1506 1525
1506 3312
1510 1511
1526 1530
1527 1530
1528 1530
1529 1530
1530 1531
1530 1532
1530 3312
1533 1535
1534 1535
1535 1536
1535 3344
1537 1538
1537 3218
1539 1544
1540 1544
1541 1544
1542 1544
1543 1544
1544 1545
1544 1546
1544 3221
1547 1548
1548 3218
1549 1569
1550 1569
1551 1569
1552 1569
1553 1569
1554 1569
1555 1569
1556 1569
1557 1569
1558 1569
1559 1569
1560 1569
1561 1569
1562 1569
1563 1569
1564 1569
1565 1569
1566 1569
1567 1569
1568 1569
1569 1570
1569 1571
1569 1572
1569 1573
1569 1574
1569 1575
1569 3275
1576 1577
1577 3218
1578 1580
1579 1580
1580 3218
1581 1582
1581 3218
1583 1584
1583 3310
1585 1586
1585 1587
1585 3218
1588 1590
1589 1590
1590 1591
1590 3218
1592 1594
1593 1594
1594 1595
1594 1596
1594 3270
1597 1599
1598 1599
1599 3254
1600 1601
1601 3218
1602 1605
1603 1605
1604 1605
1605 3310
1606 1607
1607 1608
1607 1609
1607 3218
1610 1613
1611 1613
1612 1613
1613 3310
1614 1616
1615 1616
1616 3218
1617 1618
1617 3218
1619 1620
1620 3218
1621 1622
1622 3249
1623 3346
1624 1641
1625 1641
1626 1641
1627 1641
1628 1641
1629 1641
1630 1641
1631 1641
1632 1641
1633 1641
1634 1641
1635 1641
1636 1641
1637 1641
1638 1641
1639 1641
1640 1641
1641 1642
1641 1643
1641 1644
1641 1645
1641 1646
1641 1647
1641 1648
1641 1649
1641 1650
1641 3166
1651 3150
1652 1660
1653 1660
1654 1660
1655 1660
1656 1660
1657 1660
1658 1660
1659 1660
1660 1661
1660 1667
1660 1668
1660 1669
1660 3284
1660 3286
1662 3285
1663 3284
1664 3286
1665 3286
1666 3285
1669 2177
1669 3150
1670 1674
1671 1674
1672 1674
1673 1674
1674 3348
1675 1676
1676 1677
1676 3218
1678 3130
1678 3166
1679 1681
1680 1681
1681 3310
1682 1686
1683 1686
1684 1686
1685 1686
1686 3218
1687 1688
1688 1689
1688 1690
1688 3218
1691 1693
1692 1693
1694 1695
1695 1696
1695 3310
1697 1698
1698 1699
1698 3310
1700 1703
1700 3280
1701 1703
1702 1703
1703 1704
1703 1705
1703 1706
1703 1707
1708 1709
1708 3064
1711 3269
1712 3268
1713 1715
1714 1715
1715 1716
1715 3310
1717 1721
1718 1721
1719 1721
1720 1721
1721 1722
1721 1723
1721 1724
1721 1725
1721 2282
1726 1727
1727 3310
1728 1729
1728 1730
1728 3274
1731 3263
1732 1734
1733 1734
1734 1735
1734 3218
1736 1737
1737 3310
1738 1743
1739 1743
1740 1743
1741 1743
1742 1743
1743 1744
1743 1745
1743 1746
1743 1825
1747 1798
1748 1798
1749 1798
1750 1798
1751 1798
1752 1798
1753 1798
1754 1798
1755 1798
1756 1798
1757 1798
1758 1798
1759 1798
1760 1798
1761 1798
1762 1798
1763 1798
1764 1798
1765 1798
1766 1798
1767 1798
1768 1798
1769 1798
1770 1798
1771 1798
1772 1798
1773 1798
1774 1798
1775 1798
1776 1798
1777 1798
1778 1798
1779 1798
1780 1798
1781 1798
1782 1798
1783 1798
1784 1798
1785 1798
1786 1798
1787 1798
1788 1798
1789 1798
1790 1798
1791 1798
1792 1798
1793 1798
1794 1798
1795 1798
1796 1798
1797 1798
1798 1800
1798 1801
1798 1802
1798 1803
1798 1804
1798 1805
1798 1806
1798 1807
1798 1808
1798 1809
1798 1810
1798 1811
1798 1812
1798 1813
1798 1814
1798 1815
1798 1819
1798 1820
1798 1821
1798 1822
1798 1823
1798 1824
1798 3190
1798 3191
1799 3193
1816 3194
1817 3194
1818 3193
1825 3218
1826 1830
1827 1830
1828 1830
1829 1830
1830 1831
1832 1834
1833 1834
1834 1835
1834 1836
1834 3273
1837 1838
1838 3310
1839 1845
1840 1845
1841 1845
1842 1845
1843 1845
1844 1845
1845 1846
1845 1847
1845 1848
1845 3218
1849 3261
1850 3261
1851 3261
1852 3261
1853 3261
1854 3261
1855 3261
1856 3261
1857 3261
1858 3261
1859 3261
1860 3261
1861 3262
1862 1864
1863 1864
1864 1865
1864 1866
1864 3218
1867 1869
1868 1869
1869 1870
1869 3242
1871 1872
1872 3310
1873 1875
1874 1875
1875 1876
1875 3218
1877 1878
1878 3290
1879 1880
1879 3310
1881 1884
1882 1884
1883 1884
1884 1885
1884 3310
1886 1890
1887 1890
1888 1890
1889 1890
1890 3310
1891 1892
1892 3310
1893 1894
1894 3218
1895 1896
1896 1897
1896 3218
1898 1900
1899 1900
1900 1901
1900 3245
1902 1908
1903 1908
1904 1908
1905 1908
1906 1908
1907 1908
1908 1909
1908 3310
1910 1911
1911 1912
1911 3310
1913 1916
1913 3278
1914 1916
1915 1916
1917 1918
1917 1919
1917 3201
1920 1922
1921 1922
1922 3218
1923 1924
1924 3218
1925 1939
1926 1939
1927 1939
1928 1939
1929 1939
1930 1939
1931 1939
1932 1939
1933 1939
1934 1939
1935 1939
1936 1939
1937 1939
1938 1939
1939 1940
1939 1941
1939 1942
1939 1943
1939 1944
1939 1945
1939 3339
1946 1948
1947 1948
1948 3064
1949 1952
1950 1952
1951 1952
1952 3310
1953 3256
1954 3256
1955 3259
1956 3257
1957 3256
1958 3256
1959 1964
1960 1964
1961 1964
1962 1964
1963 1964
1964 1965
1964 3249
1966 1967
1966 1968
1966 1969
1966 1970
1966 3348
1971 1978
1972 1978
1973 1978
1974 1978
1975 1978
1976 1978
1977 1978
1978 1979
1978 1980
1978 1981
1978 1991
1982 1987
1983 1987
1984 1987
1985 1987
1986 1987
1987 3272
1988 1989
1989 1990
1989 3218
1991 3162
1992 1998
1993 1998
1994 1998
1995 1998
1996 1998
1997 1998
1998 1999
1998 2002
1998 3304
1998 3313
2000 3313
2001 3313
2003 2005
2004 2005
2005 2006
2005 3310
2007 2008
2007 3310
2009 2011
2010 2011
2011 2012
2011 3227
2013 2014
2013 2015
2013 3310
2016 2023
2017 2023
2018 2023
2019 2023
2020 2023
2021 2023
2022 2023
2023 2024
2023 2025
2023 2026
2023 2027
2023 2028
2023 3371
2029 2045
2029 3213
2030 2045
2031 2045
2032 2045
2033 2045
2034 2045
2035 2045
2036 2045
2037 2045
2038 2045
2039 2045
2040 2045
2041 2045
2042 2045
2043 2045
2044 2045
2045 2046
2045 2047
2045 2048
2045 2049
2045 2050
2045 2051
2045 2052
2045 2053
2045 2054
2045 2055
2056 3307
2057 3307
2058 3307
2059 3307
2060 3307
2061 3307
2062 3307
2063 3307
2064 3307
2065 3307
2066 3307
2067 3307
2068 3307
2069 3307
2070 3307
2071 3307
2072 3307
2073 3307
2074 3307
2075 3307
2076 3307
2077 3307
2078 3308
2079 3307
2080 3307
2081 2099
2082 2099
2083 2099
2084 2099
2085 2099
2086 2099
2087 2099
2088 2099
2089 2099
2090 2099
2091 2099
2092 2099
2093 2099
2094 2099
2095 2099
2096 2099
2097 3325
2098 3323
2099 2100
2099 2101
2099 2102
2099 2103
2099 2104
2099 2106
2099 2108
2099 3322
2099 3323
2105 3325
2107 3324
2109 2112
2110 2112
2111 2112
2112 2113
2112 3321
2114 2115
2114 3218
2116 2118
2117 2118
2118 2119
2118 2120
2118 3218
2121 2130
2122 2130
2123 2130
2124 2130
2125 2130
2126 2130
2127 2130
2128 2130
2129 2130
2130 2131
2130 2132
2130 3335
2133 2138
2134 2138
2135 2138
2136 2138
2137 2138
2138 2139
2138 3310
2140 2142
2141 2142
2142 3310
2143 2144
2144 2145
2145 2306
2146 2147
2147 3218
2148 2151
2149 2151
2150 2151
2151 2152
2151 2153
2151 2154
2151 3204
2155 2156
2156 3218
2157 2164
2158 2164
2159 2164
2160 2164
2161 2164
2162 2164
2163 2164
2164 2165
2164 2166
2164 2167
2164 3310
2168 2170
2169 2170
2170 2171
2170 2172
2170 2173
2170 2174
2170 2175
2170 3350
2176 2177
2178 2179
2179 3310
2180 2181
2181 3218
2182 2183
2183 3310
2184 2192
2184 3246
2184 3252
2185 2192
2186 2192
2187 2192
2188 2192
2189 2192
2190 2192
2191 2192
2192 2193
2192 2194
2195 2197
2196 2197
2197 2198
2197 2282
2199 2200
2199 3310
2201 2202
2202 3218
2203 2204
2204 3218
2205 2213
2206 2213
2207 2213
2208 2213
2209 2213
2210 2213
2211 2213
2212 2213
2213 2214
2213 2215
2213 2216
2213 2217
2213 3189
2218 2221
2219 2221
2220 2221
2221 2222
2221 2223
2221 2224
2221 2226
2221 2228
2221 2229
2221 2230
2221 2231
2221 3152
2221 3372
2225 3152
2227 3152
2232 2233
2232 3218
2234 2235
2235 3349
2236 2241
2237 2241
2238 2241
2239 2241
2240 2241
2241 2242
2241 3065
2243 2246
2244 2246
2245 2246
2246 2247
2246 2248
2246 3218
2249 2251
2250 2251
2251 2252
2251 2253
2251 2254
2251 2255
2251 2256
2251 3064
2257 2260
2258 2260
2259 2260
2260 2261
2260 3310
2262 2263
2263 3218
2264 3212
2265 2267
2266 2267
2267 3310
2268 2269
2269 3310
2270 2272
2271 2272
2272 2273
2272 2761
2274 2277
2275 2277
2276 2277
2277 2278
2277 2279
2277 2280
2277 2281
2277 2282
2282 2287
2282 2290
2282 3274
2283 2287
2284 2287
2285 2287
2286 2287
2288 2290
2289 2290
2290 2291
2292 2298
2293 2298
2294 2298
2295 2298
2296 2298
2297 2298
2298 2299
2298 2300
2298 2301
2298 3310
2302 2304
2303 2304
2304 2305
2306 3310
2307 2315
2307 3301
2308 2315
2309 2315
2310 2315
2311 2315
2312 2315
2313 2315
2314 2315
2315 2316
2315 2317
2315 2318
2315 2319
2315 2320
2315 2321
2322 2323
2323 3310
2324 2325
2324 3218
2326 2327
2327 3310
2334 2342
2335 2342
2336 2342
2337 2342
2338 2342
2339 2342
2340 2342
2341 2342
2342 2343
2342 2344
2342 3353
2345 2346
2346 3218
2347 2348
2348 2349
2348 3218
2350 2356
2351 2356
2352 2356
2353 2356
2354 2356
2355 2356
2356 2357
2356 2358
2356 2359
2356 2360
2356 2361
2356 3352
2362 2968
2362 3351
2362 3352
2363 2365
2364 2365
2365 2366
2365 3173
2366 2367
2368 2369
2369 2370
2369 2677
2371 2372
2372 3218
2373 2385
2374 2385
2375 2385
2376 2385
2377 2385
2378 2385
2379 2385
2380 2385
2381 2385
2382 2385
2383 2385
2384 2385
2385 2386
2385 2387
2385 3353
2388 2390
2389 2390
2390 2391
2390 2392
2390 2393
2390 3218
2394 2395
2395 3064
2396 2401
2397 2401
2398 2401
2399 2401
2400 2401
2401 2402
2401 2403
2404 2405
2404 2406
2407 2410
2408 2410
2409 2410
2410 2411
2410 2412
2410 3334
2413 2414
2414 3310
2415 2416
2416 3218
2417 2422
2418 2422
2419 2422
2420 2422
2421 2422
2422 3197
2423 2424
2423 3218
2425 2432
2426 2432
2427 2432
2428 2432
2429 2432
2430 2432
2431 2432
2432 2433
2432 2434
2432 2435
2432 3187
2436 2437
2437 3310
2438 2444
2439 2444
2440 2444
2441 2444
2442 2444
2443 2444
2444 2445
2444 3358
2446 3370
2447 2457
2447 3250
2448 2457
2449 2457
2450 2457
2451 2457
2452 2457
2453 2457
2454 2457
2455 2457
2456 2457
2457 2458
2459 2463
2460 2463
2461 2463
2462 2463
2463 2464
2463 3249
2465 2470
2466 2470
2467 2470
2468 2470
2469 2470
2470 3249
2471 2472
2472 3218
2473 2474
2474 3231
2475 3373
2476 3373
2477 3373
2478 3373
2479 3373
2480 3374
2481 3374
2482 3373
2483 3375
2484 3373
2485 3373
2486 3373
2487 3373
2488 3373
2489 3373
2490 3373
2491 3373
2492 3373
2493 3373
2494 3373
2495 3373
2496 3373
2497 3373
2498 3373
2499 3373
2500 2504
2501 2504
2502 2504
2503 2504
2504 2505
2504 3218
2506 2507
2507 3310
2508 2517
2509 2517
2510 2517
2511 2517
2512 2517
2513 2517
2514 2517
2515 2517
2516 2517
2517 2518
2517 2519
2517 2520
2517 2521
2517 2522
2517 3218
2523 2525
2524 2525
2525 3320
2526 3205
2527 3205
2528 3205
2529 3205
2530 3205
2531 3205
2532 3205
2533 3205
2534 3205
2535 3206
2536 3205
2537 3205
2538 3205
2539 3205
2540 3205
2541 3205
2542 3205
2543 3205
2544 2547
2545 2547
2546 2547
2547 2550
2547 3266
2548 3266
2549 3266
2551 2552
2552 3218
2553 2554
2554 3218
2555 2558
2556 2558
2557 2558
2558 2559
2558 2560
2558 3218
2561 2562
2562 2563
2562 3317
2564 2584
2565 2584
2566 2584
2567 2584
2568 2584
2569 2584
2570 2584
2571 2584
2572 2584
2573 2584
2574 2584
2575 2584
2576 2584
2577 2584
2578 2584
2579 2584
2580 2584
2581 2584
2582 2584
2583 2584
2584 2585
2584 2586
2584 2587
2584 2588
2584 2589
2584 2590
2584 2591
2584 2592
2584 2593
2584 2594
2584 2595
2584 2596
2584 2602
2584 2603
2584 3366
2597 2598
2598 2599
2598 2600
2598 2601
2598 3218
2604 2630
2605 2630
2606 2630
2607 2630
2608 2630
2609 2630
2610 2630
2611 2630
2612 2630
2613 2630
2614 2630
2615 2630
2616 2630
2617 2630
2618 2630
2619 2630
2620 2630
2621 2630
2622 2630
2623 2630
2624 2630
2625 2630
2626 2630
2627 2630
2628 2630
2629 2630
2630 2631
2630 2632
2630 2633
2630 2634
2630 2635
2630 2636
2630 2637
2630 2638
2630 3218
2639 3227
2639 3228
2640 2641
2641 3218
2642 2643
2642 3161
2644 2645
2645 2646
2645 3273
2647 2648
2648 2649
2649 3198
2650 2651
2650 3218
2652 2653
2652 2654
2652 2655
2652 2656
2652 2657
2652 2658
2652 2659
2652 2660
2652 3218
2661 3341
2662 2670
2663 2670
2664 2665
2665 2670
2666 2670
2667 2670
2668 2670
2669 2670
2670 2671
2670 2672
2670 2674
2670 2675
2670 2677
2670 3341
2673 3341
2676 2677
2676 3340
2678 2679
2678 2680
2678 2681
2678 3218
2682 2683
2683 3310
2684 2687
2685 2687
2686 2687
2687 3218
2688 2689
2688 3218
2690 2691
2691 3218
2692 2693
2692 2694
2692 3218
2695 2720
2696 2720
2697 2720
2698 2720
2699 2720
2700 2720
2701 2720
2702 2720
2703 2720
2704 2720
2705 2720
2706 2720
2707 2720
2708 2720
2709 2720
2710 2720
2711 2720
2712 2720
2713 2720
2714 2720
2715 2720
2716 2720
2717 2720
2718 2720
2719 2720
2720 2721
2720 2722
2720 2723
2720 2724
2720 2725
2720 2726
2720 2727
2720 2728
2720 2729
2720 2730
2720 2731
2720 2732
2720 2733
2720 2734
2720 3355
2735 2738
2736 2738
2737 2738
2738 2739
2738 2740
2738 2741
2738 3359
2742 2752
2743 2752
2744 2752
2745 2752
2746 2752
2747 2752
2748 2752
2749 2752
2750 2752
2751 2752
2752 2753
2752 2754
2752 2755
2752 2756
2752 2757
2752 2758
2752 2759
2752 2760
2752 3370
2761 2781
2761 3153
2762 3154
2763 2781
2764 2781
2765 3158
2766 2781
2767 2781
2768 2781
2769 2781
2770 2781
2771 2781
2772 2781
2773 2781
2774 2781
2775 2781
2776 3158
2777 2781
2778 2781
2779 2781
2780 2781
2781 2782
2781 2783
2781 2784
2781 2790
2781 2791
2781 2792
2781 3154
2781 3156
2785 3159
2786 3160
2787 3156
2788 3160
2789 3155
2793 3155
2794 2803
2795 2803
2796 2803
2797 2803
2798 3164
2799 2803
2800 3165
2801 2803
2802 2803
2803 2804
2803 2805
2803 2807
2803 2808
2803 3163
2803 3164
2806 3165
2809 2810
2810 3241
2811 2814
2812 2814
2813 2814
2814 2815
2816 2821
2817 2821
2818 2821
2819 2821
2820 2821
2821 2822
2821 2823
2821 2824
2821 2825
2821 3176
2826 2827
2826 2828
2826 3214
2829 2830
2830 3218
2831 2833
2832 2833
2833 3218
2834 2841
2835 2841
2836 2841
2837 2841
2838 2841
2839 2841
2840 2841
2841 2842
2841 2843
2841 2844
2841 3368
2845 2849
2846 2849
2847 2849
2848 2849
2849 2850
2849 2851
2849 2852
2849 2853
2849 2854
2849 2855
2849 2856
2849 2857
2849 3343
2858 2859
2859 3310
2860 3203
2861 3203
2862 3207
2863 3203
2864 3203
2865 3203
2866 3203
2867 3203
2868 3203
2869 3203
2870 3203
2871 3203
2872 3203
2873 3203
2874 3203
2875 3207
2876 3203
2877 3203
2878 3203
2879 3203
2880 3203
2881 3203
2882 3203
2883 3203
2884 3203
2885 3203
2886 3203
2887 3203
2888 3203
2889 3203
2890 3203
2891 3203
2892 3203
2893 3203
2894 3203
2895 3203
2896 3203
2897 3203
2898 3203
2899 3203
2900 3203
2901 3203
2902 3203
2903 3203
2904 3203
2905 3203
2906 3203
2907 3203
2908 3203
2909 3203
2910 3203
2911 3203
2912 3203
2913 3203
2914 3203
2915 3203
2916 3208
2917 3203
2918 3203
2919 3203
2920 3203
2921 3203
2922 3203
2923 3203
2924 2925
2925 2926
2925 3208
2927 2937
2928 2937
2929 2937
2930 2937
2931 2937
2932 2937
2933 2937
2934 2937
2935 2937
2936 2937
2937 2938
2937 2939
2937 2940
2937 2941
2937 3355
2942 2944
2943 2944
2944 2945
2944 3190
2946 2947
2947 3218
2948 2949
2949 2950
2949 3310
2951 2968
2952 2968
2953 2968
2954 2968
2955 2968
2956 2968
2957 2968
2958 2968
2959 2968
2960 2968
2961 2968
2962 2968
2963 2968
2964 2968
2965 2968
2966 2968
2967 2968
2968 2969
2968 2970
2968 2971
2968 2972
2968 2973
2968 2974
2968 2976
2975 2976
2977 2981
2978 2981
2979 2981
2980 2981
2981 2982
2981 2983
2981 3218
2984 2991
2985 2991
2986 2991
2987 2991
2988 2991
2989 2991
2990 2991
2991 2992
2991 2993
2991 3178
2994 2997
2995 2997
2996 2997
2997 2998
2997 3338
2999 3218
3000 3001
3000 3002
3000 3003
3000 3004
3000 3005
3000 3006
3000 3007
3000 3008
3000 3009
3000 3218
3010 3011
3011 3169
3012 3256
3013 3256
3014 3256
3015 3256
3016 3256
3017 3256
3018 3259
3019 3256
3020 3256
3021 3257
3022 3256
3023 3256
3024 3256
3025 3258
3026 3256
3027 3030
3028 3030
3029 3030
3030 3031
3030 3032
3030 3260
3033 3035
3034 3035
3035 3036
3035 3251
3037 3041
3038 3041
3039 3041
3040 3041
3041 3042
3041 3043
3041 3218
3044 3046
3045 3046
3046 3047
3046 3048
3046 3218
3049 3050
3050 3051
3050 3218
3052 3060
3053 3060
3054 3060
3055 3060
3056 3060
3057 3060
3058 3060
3059 3060
3060 3061
3060 3065
3062 3063
3063 3064
3064 3065
3064 3069
3064 3213
3065 3214
3066 3067
3066 3068
3066 3214
3069 3070
3069 3071
3072 3074
3073 3074
3074 3218
3075 3078
3076 3078
3077 3078
3078 3310
3079 3082
3080 3082
3081 3082
3082 3083
3082 3084
3082 3085
3082 3283
3086 3093
3087 3093
3088 3093
3089 3093
3090 3093
3091 3093
3092 3093
3093 3094
3093 3310
3095 3097
3096 3097
3097 3098
3097 3226
3099 3108
3100 3108
3101 3108
3102 3108
3103 3108
3104 3108
3105 3108
3106 3108
3107 3108
3108 3110
3108 3111
3108 3112
3108 3113
3108 3117
3108 3375
3108 3376
3108 3377
3109 3377
3114 3376
3115 3377
3116 3376
3118 3119
3118 3218
3120 3121
3122 3123
3123 3310
3124 3125
3124 3126
3124 3127
3124 3282
3128 3130
3129 3130
3130 3131
3130 3132
3133 3134
3133 3135
3133 3221
3136 3137
3137 3138
3137 3139
3137 3218
3140 3145
3141 3145
3142 3145
3143 3145
3144 3145
3145 3345
3146 3147
3147 3218
3148 3149
3148 3218
3150 3218
3151 3161
3151 3362
3153 3369
3154 3155
3156 3157
3157 3158
3157 3159
3159 3160
3162 3347
3163 3166
3163 3346
3164 3165
3167 3168
3167 3327
3168 3172
3168 3222
3169 3170
3169 3180
3169 3345
3170 3171
3170 3178
3171 3173
3171 3176
3172 3174
3174 3175
3174 3192
3175 3177
3175 3184
3177 3179
3180 3183
3181 3182
3184 3185
3186 3187
3186 3296
3188 3189
3188 3190
3188 3295
3191 3193
3191 3194
3197 3198
3197 3227
3197 3293
3198 3199
3199 3200
3199 3209
3200 3201
3201 3202
3202 3203
3203 3204
3203 3208
3204 3205
3205 3206
3206 3207
3209 3210
3209 3220
3210 3211
3210 3215
3211 3212
3212 3213
3215 3216
3216 3217
3218 3248
3218 3280
3220 3221
3222 3223
3222 3277
3223 3224
3223 3273
3224 3225
3224 3244
3225 3226
3225 3241
3229 3230
3229 3292
3230 3231
3232 3233
3232 3237
3232 3291
3233 3234
3235 3236
3237 3238
3237 3243
3238 3239
3239 3240
3239 3242
3244 3245
3244 3246
3246 3267
3247 3362
3248 3249
3248 3263
3249 3250
3249 3253
3250 3251
3253 3254
3253 3261
3254 3255
3255 3256
3255 3260
3256 3257
3256 3258
3258 3259
3261 3262
3263 3264
3263 3276
3264 3265
3264 3275
3265 3270
3270 3271
3271 3272
3272 3274
3277 3278
3277 3282
3278 3279
3280 3310
3282 3283
3284 3285
3287 3290
3287 3309
3287 3354
3288 3289
3291 3292
3291 3310
3292 3293
3293 3294
3294 3295
3295 3296
3296 3297
3297 3298
3297 3345
3298 3299
3299 3300
3299 3340
3300 3301
3300 3331
3301 3302
3302 3303
3302 3321
3303 3304
3303 3314
3304 3305
3305 3306
3306 3307
3307 3308
3309 3311
3309 3344
3310 3327
3311 3312
3314 3315
3314 3320
3315 3316
3316 3317
3316 3318
3318 3319
3321 3322
3321 3326
3323 3324
3324 3325
3326 3328
3327 3337
3328 3329
3328 3330
3331 3332
3331 3339
3332 3333
3332 3338
3333 3334
3334 3335
3337 3343
3343 3354
3345 3346
3346 3347
3347 3348
3348 3349
3349 3350
3350 3351
3350 3356
3351 3355
3352 3353
3354 3362
3356 3357
3356 3369
3357 3358
3357 3360
3358 3359
3360 3361
3361 3363
3363 3364
3364 3365
3364 3367
3365 3366
3367 3368
3369 3370
3370 3371
3371 3372
3372 3373
3373 3374
3373 3375
