# Marsupialia clade from the Open Tree of Life; 837 nodes, 836 edges; canonical sorted order
0 1
0 2
0 3
3 159
3 817
4 5
4 554
6 8
7 8
8 9
8 734
10 686
11 12
12 783
13 758
14 758
15 758
16 758
17 764
18 20
19 20
20 21
20 764
22 758
23 761
24 758
25 763
26 28
27 28
28 758
29 31
30 31
31 760
32 758
33 758
34 767
35 762
36 758
37 760
38 758
39 40
39 140
41 44
42 44
43 44
44 46
44 47
44 554
45 46
48 49
48 73
48 733
49 50
51 55
52 55
53 55
54 55
55 56
55 57
57 190
57 242
57 434
57 591
58 59
59 554
60 63
61 63
62 63
63 64
63 65
63 833
66 67
67 833
68 69
69 73
70 751
71 751
72 751
73 751
74 75
75 142
76 79
76 438
77 78
78 79
79 80
81 83
82 83
83 823
84 88
85 88
86 88
87 88
88 89
88 142
90 92
91 92
92 93
92 94
92 95
92 805
96 98
97 98
98 778
99 100
99 781
101 102
102 755
102 756
102 782
103 104
104 778
105 647
105 754
105 755
106 112
107 775
108 112
109 776
110 112
111 773
112 772
112 773
113 776
114 774
115 156
115 434
116 134
117 122
118 134
119 134
120 122
121 122
122 123
122 731
124 125
125 126
125 728
127 128
128 725
129 724
130 729
131 134
132 134
133 134
134 135
134 138
134 724
134 836
136 731
137 729
139 726
140 141
140 209
140 430
140 809
140 833
141 227
141 694
142 809
142 810
142 812
143 828
144 829
145 151
146 151
147 151
148 151
149 151
150 829
151 152
151 153
151 154
151 825
151 828
155 188
155 640
156 157
158 746
158 752
158 798
159 160
161 167
162 167
163 167
164 167
165 167
166 167
167 168
167 732
169 170
170 171
170 172
170 732
173 174
174 341
175 184
176 184
177 184
178 184
179 184
180 183
181 183
182 183
183 184
184 186
184 454
185 186
186 187
189 190
191 192
191 809
193 820
194 821
195 202
196 820
197 202
198 202
199 202
200 820
201 821
202 203
202 818
202 820
204 205
205 805
206 207
207 730
208 209
210 211
211 212
212 826
213 215
214 215
215 807
216 225
217 219
218 219
219 225
220 223
221 223
222 223
223 224
223 807
225 449
225 807
226 227
228 233
229 233
230 233
231 233
232 233
233 696
234 235
235 247
236 238
237 238
238 687
239 240
240 814
241 242
243 246
244 246
245 246
246 824
247 827
247 835
248 700
249 702
250 251
251 702
252 700
253 710
254 700
255 700
256 700
257 700
258 700
259 700
260 700
261 700
262 700
263 700
264 700
265 267
266 267
267 650
268 293
269 293
270 293
271 293
272 293
273 293
274 293
275 293
276 293
277 293
278 293
279 293
280 293
281 293
282 293
283 293
284 285
284 293
286 293
287 293
288 289
289 290
289 293
291 293
292 293
293 294
293 295
293 297
293 299
293 300
293 301
293 302
293 303
293 304
293 305
293 306
293 811
296 297
297 298
307 324
308 324
309 324
310 324
311 324
312 324
313 324
314 819
315 324
316 324
317 324
318 324
319 324
320 324
321 324
322 324
323 324
324 325
324 327
324 328
324 818
324 819
326 819
329 330
330 331
331 822
332 434
332 694
333 336
334 336
335 336
336 337
336 338
336 339
336 811
340 341
340 721
342 347
343 345
344 345
345 347
346 347
347 348
347 454
349 364
350 364
351 364
352 364
353 364
354 364
355 364
356 364
357 364
358 364
359 364
360 364
361 364
362 364
363 364
364 365
364 366
364 367
364 368
364 369
364 370
364 371
364 372
364 373
364 374
364 375
364 810
376 765
377 378
378 767
379 766
380 765
381 765
382 384
383 384
384 385
384 386
384 387
384 780
388 392
388 755
389 392
390 392
391 392
393 394
394 777
395 397
395 398
395 784
395 800
396 800
399 800
400 708
401 711
402 404
403 404
404 708
405 710
406 711
407 709
408 409
409 410
409 709
411 415
411 753
412 413
413 414
413 415
416 714
417 714
418 419
418 698
418 714
420 705
421 422
422 701
422 704
423 425
424 425
425 426
425 427
425 704
428 705
429 430
430 431
432 433
433 781
435 437
435 831
436 437
438 754
438 803
439 441
440 441
441 447
442 447
443 806
444 447
445 446
445 806
447 448
447 449
447 806
449 804
450 452
451 452
452 453
452 454
454 593
454 804
455 465
455 597
455 805
455 834
456 457
456 730
458 465
459 465
460 465
461 462
461 465
463 465
464 465
466 718
467 468
468 469
468 719
470 720
471 484
472 474
473 474
474 720
475 718
476 484
477 717
478 480
479 480
480 481
480 716
482 484
483 484
484 485
484 488
484 490
484 491
484 715
484 716
484 719
486 717
487 716
489 716
492 493
493 494
493 716
495 496
496 706
497 514
498 741
499 514
500 743
501 514
502 514
503 738
504 514
505 514
506 749
507 514
508 509
509 740
510 749
511 514
512 739
513 741
514 733
514 734
514 744
515 520
516 520
517 520
518 520
519 520
520 521
520 522
520 523
520 524
520 525
520 757
526 530
526 752
527 528
528 529
528 530
531 533
532 533
533 777
534 542
535 542
536 542
537 542
538 542
539 542
540 541
541 542
542 543
542 544
542 545
542 825
546 802
547 802
548 549
549 550
549 552
551 802
552 782
552 801
553 801
554 557
554 827
555 557
556 557
557 558
557 560
559 560
560 561
560 562
563 770
564 779
565 768
566 780
567 768
568 779
569 703
569 742
569 834
570 574
571 574
572 574
573 574
574 575
574 742
576 712
577 713
578 581
579 581
580 713
581 706
581 712
582 589
583 750
584 589
585 747
586 750
587 589
588 589
589 590
589 742
589 747
591 592
593 594
595 596
596 772
597 598
599 600
600 697
601 626
602 794
603 789
604 626
605 626
606 799
607 795
608 790
609 799
610 626
611 626
612 790
613 786
614 794
615 791
616 618
617 618
618 790
619 787
620 626
621 796
622 623
623 624
623 790
625 793
626 628
626 784
626 785
626 795
627 792
629 630
630 631
630 632
630 797
633 793
634 636
635 636
636 637
636 638
636 639
636 735
640 831
641 743
642 736
643 737
644 645
644 832
645 646
647 649
648 649
650 803
651 656
652 660
653 815
654 656
655 816
656 661
656 662
656 663
656 664
656 814
656 815
656 816
657 815
658 660
659 660
660 816
665 671
666 668
667 668
668 671
669 722
670 671
671 715
671 722
672 674
673 674
674 675
674 676
674 723
677 723
678 679
679 811
680 748
681 684
682 684
683 684
684 745
684 748
685 748
686 830
687 688
687 752
688 689
690 691
691 699
692 693
692 745
694 721
695 696
695 715
695 836
696 697
697 698
698 699
699 700
700 701
700 707
701 702
703 706
703 730
704 705
707 708
707 709
707 710
707 711
712 713
716 717
717 718
719 720
721 746
722 723
724 725
725 726
726 727
727 728
727 731
728 729
732 835
733 798
734 735
735 736
736 737
736 743
737 738
738 739
739 740
740 741
744 745
744 749
746 753
747 750
753 754
756 757
756 768
757 758
758 759
758 765
759 760
759 761
761 762
762 763
763 764
765 766
766 767
768 769
768 780
768 781
769 770
769 778
769 779
770 771
771 772
771 777
773 774
774 775
775 776
782 783
783 784
785 786
785 794
786 787
787 788
788 789
788 791
789 790
791 792
792 793
795 796
796 797
797 799
798 808
801 802
803 804
808 817
808 826
809 830
810 811
812 813
812 822
813 814
813 818
817 832
820 821
822 823
823 824
824 825
826 827
828 829
830 831
832 834
835 836
