# Perissodactyla clade from the Open Tree of Life; 106 nodes, 105 edges; canonical sorted order
0 94
0 96
1 62
1 64
2 39
2 64
3 5
3 91
4 5
5 6
7 9
8 9
9 36
10 12
11 12
12 13
12 15
12 91
14 15
15 16
17 31
17 91
18 31
19 31
20 31
21 31
22 31
23 31
24 31
25 31
26 31
27 31
28 31
29 31
30 31
31 32
31 33
31 34
35 51
35 64
36 64
36 76
36 79
36 81
37 39
38 39
39 40
41 46
42 46
43 46
44 46
45 46
46 47
46 78
48 70
49 70
50 64
52 59
53 59
54 59
55 59
56 59
57 59
58 59
59 77
60 61
61 64
63 64
64 66
64 67
64 69
64 70
64 71
64 77
64 78
64 92
65 92
68 70
72 73
73 74
73 78
75 76
79 105
80 81
82 83
83 84
83 87
83 89
83 90
83 91
84 85
86 87
87 88
91 105
93 94
93 95
94 98
94 105
97 98
98 99
98 100
98 101
98 103
102 103
103 104
