# Piciformes clade from the Open Tree of Life; 1098 nodes, 1097 edges; canonical sorted order
0 1019
1 3
2 3
3 1019
4 1020
5 6
5 1020
7 1018
7 1019
7 1020
8 1020
9 22
9 1004
9 1005
9 1009
10 1008
11 12
12 1008
13 14
14 1007
15 1010
16 1006
17 1012
18 1011
19 1010
20 1007
21 1012
23 24
24 987
25 26
26 445
27 28
27 30
27 859
28 29
31 33
32 33
33 34
33 1080
35 36
36 445
37 795
38 39
39 795
40 831
41 830
42 48
43 798
44 863
45 857
46 831
47 48
48 53
48 773
48 1029
49 825
50 51
51 52
51 798
54 821
55 863
56 937
57 938
58 932
59 60
60 939
61 932
62 937
63 64
64 939
65 936
66 933
67 934
68 938
69 930
70 930
71 928
72 928
73 74
73 445
75 1052
76 1049
77 1046
78 1050
79 1047
80 1052
81 1044
81 1046
81 1050
82 1048
83 1049
84 1054
85 96
86 1044
87 1054
88 1053
89 96
90 1040
91 92
92 93
92 1042
94 96
95 1043
96 97
96 98
96 99
96 1036
96 1037
100 1042
101 1053
102 903
103 118
104 105
105 901
106 900
107 108
107 905
109 896
110 904
111 118
112 118
113 114
114 908
115 901
116 906
117 899
118 119
118 120
118 122
118 876
118 896
118 908
121 906
123 908
124 904
125 126
126 445
127 128
128 129
128 445
130 131
131 804
131 816
132 816
133 816
134 135
134 980
136 861
137 148
138 860
139 860
140 860
141 860
142 862
143 860
144 860
145 861
146 862
147 148
148 149
148 150
148 151
148 152
148 153
148 859
148 860
153 154
155 940
156 940
157 158
158 912
158 940
159 886
160 162
161 162
162 893
163 885
164 175
165 175
166 892
167 175
168 893
169 175
170 175
171 175
172 891
173 175
174 175
175 877
175 882
176 889
177 892
178 888
179 886
180 889
181 797
182 1082
183 796
184 826
185 186
186 802
187 1045
188 820
189 890
190 1077
191 192
192 1030
193 1051
194 197
195 197
196 197
197 198
197 199
197 200
197 1087
201 204
202 204
203 204
204 797
205 828
206 208
207 208
208 209
208 210
208 1051
211 212
212 819
213 214
214 802
215 216
216 827
217 1087
218 826
219 1082
220 820
221 805
222 806
223 810
224 809
225 811
226 808
227 813
228 814
229 805
230 805
231 808
232 811
233 814
234 815
235 805
236 237
237 445
238 945
239 945
240 241
241 946
242 945
243 944
244 946
245 866
246 866
247 866
248 873
249 866
250 875
251 252
252 875
253 866
254 872
255 256
256 874
257 871
258 259
259 868
260 872
261 1056
262 263
263 264
263 1057
265 1036
265 1055
265 1057
266 1056
267 1055
268 1057
269 270
269 445
271 272
272 273
272 944
274 277
275 277
276 277
277 445
278 279
279 929
280 284
281 284
282 284
283 284
284 285
284 286
284 1083
287 289
288 289
289 942
290 890
291 307
292 307
293 307
294 307
295 307
296 307
297 977
298 307
299 307
300 307
301 978
302 307
303 307
304 977
305 307
306 307
307 308
307 309
307 310
307 311
307 312
307 313
307 314
307 317
307 318
307 976
315 978
316 977
318 423
318 427
318 596
318 772
319 320
320 815
321 322
321 323
321 324
321 445
324 325
326 328
327 328
328 818
329 890
330 890
331 1067
332 1067
333 1067
334 1064
335 1067
336 1067
337 1067
338 1067
339 980
340 342
341 342
342 980
343 980
344 980
345 980
346 980
347 980
348 980
349 980
350 351
351 980
352 359
353 359
354 359
355 359
356 359
357 359
358 359
359 360
359 793
361 980
362 980
363 980
364 980
365 980
366 980
367 980
368 980
369 980
370 980
371 374
372 374
373 374
374 375
374 777
376 980
377 980
378 980
379 980
380 980
381 980
382 384
383 948
384 387
384 947
384 948
385 386
386 948
387 388
389 854
390 842
391 842
392 854
393 847
394 849
395 845
396 839
397 846
398 402
399 402
400 402
401 402
402 403
402 841
404 840
405 856
406 846
407 838
408 840
409 847
410 445
411 412
411 848
413 855
414 856
415 445
416 853
417 858
418 419
419 855
420 421
421 851
422 445
423 424
423 425
426 427
427 428
429 432
430 432
431 432
432 433
432 434
432 445
435 436
436 437
437 947
438 867
439 868
440 867
441 442
442 909
443 444
444 445
445 772
445 869
446 772
446 980
447 927
448 823
449 921
450 907
451 890
452 824
453 927
454 455
455 826
456 801
457 800
458 801
459 921
460 829
461 462
462 463
462 824
464 465
464 910
466 473
467 880
468 878
469 879
470 881
471 881
472 473
473 474
473 877
473 878
475 955
476 504
477 504
478 479
479 962
480 504
481 972
482 504
483 966
484 963
485 504
486 958
487 504
488 504
489 504
490 504
491 493
492 493
493 504
494 961
495 504
496 504
497 504
498 968
499 954
500 504
501 504
502 504
503 962
504 505
504 506
504 509
504 511
504 518
504 520
504 951
504 954
507 961
508 970
510 956
512 969
513 968
514 958
515 955
516 972
517 967
519 970
521 545
522 545
523 915
524 526
525 526
526 916
527 545
528 926
529 545
530 545
531 545
532 533
533 918
534 545
535 545
536 545
537 545
538 545
539 545
540 545
541 545
542 545
543 545
544 545
545 547
545 549
545 550
545 551
545 552
545 553
545 555
545 558
545 913
545 914
545 926
546 926
548 924
554 920
556 557
556 923
559 919
560 925
561 563
562 563
563 564
563 920
565 925
566 923
567 1070
568 573
569 573
570 573
571 573
572 573
573 1075
574 1073
575 1072
576 1079
577 581
578 1076
579 1079
580 1076
581 588
581 1060
581 1069
581 1078
582 583
583 584
583 1073
585 1071
586 1078
587 1074
589 1065
590 1065
591 593
592 593
593 1064
593 1065
594 596
595 596
596 597
596 598
596 599
596 600
596 601
602 780
603 788
604 780
605 1089
606 792
607 777
608 783
609 1089
610 783
611 1089
612 792
613 791
614 779
615 1096
616 786
617 781
618 788
619 778
620 790
621 1093
622 784
623 794
624 782
625 790
626 779
627 787
628 1092
629 789
630 794
631 1093
632 786
633 785
634 636
635 636
636 1001
637 997
638 998
639 987
640 999
641 642
641 643
641 1000
644 646
645 646
646 1002
647 986
648 986
649 994
650 986
651 993
652 654
653 654
654 988
655 998
656 986
657 986
658 1002
659 986
660 1000
661 986
662 994
663 992
664 988
665 986
666 679
667 679
668 669
669 1033
670 679
671 1028
672 1025
673 1026
674 1028
675 1032
676 1023
677 679
678 679
679 680
679 686
679 984
679 1021
681 682
682 683
682 1022
684 1033
685 686
687 688
687 1032
689 690
689 1027
691 696
692 696
693 695
694 695
695 696
696 952
697 698
698 1016
699 1016
700 1014
701 1017
702 703
702 1015
704 1018
705 706
706 707
706 983
708 835
709 711
709 833
709 834
710 835
712 834
713 1084
714 1084
715 1081
716 1081
717 1084
718 1081
719 1086
720 1085
721 1085
722 723
723 724
723 725
723 726
723 729
723 1058
723 1085
727 1086
728 1085
730 1058
731 1058
732 1058
733 1068
734 1058
735 1058
736 1061
737 1058
738 1058
739 1066
740 1068
741 1058
742 1058
743 1003
744 971
745 950
746 1003
747 971
748 975
749 953
750 991
751 756
752 991
753 965
754 756
755 756
756 902
756 949
756 1003
757 974
758 975
759 979
760 761
760 952
762 764
763 764
764 1058
765 766
766 1058
767 768
767 858
769 890
770 890
771 829
773 798
773 817
774 775
774 781
774 1097
775 776
775 780
776 777
776 778
778 779
781 782
782 783
784 785
784 1097
785 786
787 788
787 1095
789 790
789 1094
791 792
791 1090
793 794
793 1089
795 1088
796 797
796 1034
799 800
799 802
799 1024
800 801
803 804
803 818
803 894
804 805
805 806
805 812
806 807
807 808
807 809
809 810
810 811
812 813
812 815
813 814
817 821
817 857
818 819
819 820
821 825
822 823
822 826
822 890
823 824
825 830
826 827
827 828
828 829
830 831
832 833
832 858
832 884
833 836
834 835
836 837
836 843
837 838
837 841
838 839
839 840
841 842
843 844
843 848
844 845
844 847
845 846
848 849
849 850
850 851
850 856
851 852
852 853
852 855
853 854
857 863
859 990
860 861
861 862
864 865
864 911
864 973
865 866
865 876
866 867
866 870
867 868
869 909
869 951
870 871
870 873
871 872
873 874
874 875
876 877
878 879
879 880
880 881
882 883
882 893
883 885
883 887
884 890
884 1029
885 886
887 888
887 891
888 889
890 894
891 892
894 895
895 902
895 1024
896 897
897 898
897 905
898 899
898 903
899 900
900 901
902 907
903 904
905 906
907 910
909 942
910 917
911 912
911 941
912 913
913 928
914 915
914 922
915 916
916 918
917 921
917 927
918 919
919 920
922 923
922 924
924 925
928 929
928 939
929 930
930 931
931 932
931 933
933 934
934 935
935 936
935 938
936 937
941 943
941 947
942 973
943 944
943 945
945 946
949 950
949 979
950 953
951 952
953 960
954 955
955 956
955 963
955 972
956 957
957 958
957 959
959 961
959 962
960 965
960 974
963 964
964 966
964 969
965 971
966 967
967 968
969 970
973 990
974 975
976 977
976 978
979 991
980 981
980 1088
981 982
981 1058
982 983
982 1036
983 984
984 985
985 986
985 1004
986 987
986 989
987 988
989 992
989 995
990 1029
992 993
993 994
995 996
995 1001
996 997
996 999
997 998
999 1000
1001 1002
1004 1013
1005 1006
1005 1008
1006 1007
1009 1010
1009 1011
1011 1012
1013 1014
1013 1017
1014 1015
1015 1016
1017 1018
1021 1022
1021 1031
1022 1023
1023 1025
1024 1030
1025 1026
1026 1027
1027 1028
1030 1034
1031 1032
1031 1033
1034 1035
1035 1041
1035 1087
1037 1038
1037 1054
1038 1039
1038 1053
1039 1040
1039 1043
1040 1042
1041 1045
1041 1077
1043 1044
1045 1051
1046 1047
1047 1048
1048 1049
1050 1052
1055 1056
1058 1059
1059 1060
1059 1080
1060 1061
1061 1062
1062 1063
1062 1068
1063 1064
1063 1066
1066 1067
1069 1070
1069 1074
1070 1071
1071 1072
1072 1073
1074 1075
1075 1076
1077 1082
1078 1079
1080 1081
1081 1083
1083 1084
1085 1086
1088 1089
1089 1090
1090 1091
1091 1092
1091 1094
1092 1093
1094 1095
1095 1096
1096 1097
