# Pinaceae clade from the Open Tree of Life; 745 nodes, 744 edges; canonical sorted order
0 68
1 65
2 711
3 68
4 684
5 68
6 68
7 8
7 68
9 68
10 11
10 704
12 68
13 713
14 686
15 713
16 683
17 68
18 19
18 20
18 697
21 698
22 68
23 24
23 678
25 26
25 68
27 691
28 706
29 30
29 690
31 696
32 686
33 683
34 35
34 36
34 68
37 701
38 694
39 677
40 682
41 681
42 677
43 689
44 674
45 68
46 68
47 706
48 51
49 51
50 51
51 697
52 53
52 54
52 701
55 68
56 68
57 68
58 59
58 675
60 669
61 68
62 708
63 692
64 68
65 711
66 68
67 710
68 69
68 70
68 77
68 80
68 83
68 86
68 89
68 92
68 93
68 668
68 669
70 71
72 73
72 74
72 75
72 709
76 684
78 79
78 680
81 82
81 672
84 85
84 703
87 698
88 705
90 673
91 679
94 95
94 237
96 97
97 621
98 100
99 100
100 101
100 102
100 237
103 109
104 109
105 727
106 109
107 727
108 109
109 237
109 727
110 111
110 112
110 113
110 715
114 115
114 121
116 117
116 118
116 119
116 715
120 121
121 122
121 123
121 124
121 668
121 715
125 126
126 237
127 135
128 150
129 150
130 150
131 150
132 133
132 662
134 150
135 136
135 137
135 138
135 661
139 140
139 660
141 150
142 663
143 150
144 663
145 150
146 150
147 150
148 150
149 662
150 151
150 156
150 158
150 658
150 659
151 152
151 153
151 154
151 155
156 157
159 160
160 717
161 162
161 237
163 222
164 165
164 629
166 222
167 647
168 169
168 630
170 222
171 172
171 173
171 652
174 222
175 647
176 222
177 222
178 633
179 222
180 222
181 656
182 650
183 222
184 657
185 638
186 222
187 222
188 222
189 222
190 191
190 192
190 633
192 193
194 632
195 626
196 222
197 222
198 222
199 200
199 201
199 202
199 203
199 204
199 650
205 222
206 640
207 222
208 645
209 210
209 646
211 222
212 657
213 214
213 215
213 636
216 654
217 222
218 653
219 629
220 640
221 646
222 223
222 229
222 232
222 233
222 621
222 622
224 643
225 655
226 635
227 639
228 648
230 622
231 643
234 651
235 636
236 655
237 500
237 540
238 406
239 406
240 406
241 406
242 406
243 406
244 664
245 664
246 664
247 406
248 581
249 406
250 594
251 406
252 614
253 254
253 255
253 562
256 257
256 258
256 590
259 554
260 406
261 262
261 263
261 598
264 406
265 615
266 406
267 406
268 569
269 406
270 406
271 588
272 406
273 274
273 723
274 275
274 276
277 600
278 406
279 712
280 406
281 546
282 737
283 546
284 406
285 406
286 586
287 288
287 289
287 607
290 597
291 570
292 406
293 294
293 568
294 295
294 296
294 297
298 406
299 564
300 664
301 406
302 547
303 606
304 592
305 594
306 406
307 406
308 637
309 310
309 311
309 573
312 406
313 563
314 605
315 561
316 559
317 743
318 319
318 608
320 321
320 322
320 744
323 324
323 563
325 406
326 589
327 598
328 406
329 619
330 406
331 664
332 600
333 741
334 550
335 406
336 723
337 406
338 339
338 567
340 406
341 342
341 700
343 741
344 406
345 620
346 731
347 562
348 606
349 406
350 610
351 406
352 353
352 634
354 406
355 584
356 576
357 358
357 583
359 595
360 685
361 406
362 734
363 364
363 551
365 406
366 406
367 615
368 637
369 551
370 731
371 406
372 406
373 406
374 547
375 406
376 377
376 730
378 406
379 612
380 555
381 406
382 685
383 609
384 385
384 566
386 579
387 406
388 590
389 390
389 391
389 571
392 553
393 406
394 406
395 613
396 397
396 398
396 399
396 548
398 400
401 406
402 664
403 742
404 405
404 544
406 414
406 416
406 426
406 435
406 439
406 442
406 443
406 445
406 446
406 448
406 449
406 452
406 453
406 454
406 456
406 458
406 473
406 476
406 477
406 479
406 484
406 485
406 490
406 491
406 492
406 493
406 574
406 616
406 664
407 743
408 409
408 410
408 582
411 412
411 413
411 552
415 578
417 418
417 707
419 612
420 714
421 422
421 423
421 424
421 559
425 738
427 544
428 429
428 430
428 431
428 567
432 591
433 543
434 610
436 437
436 438
436 554
440 607
441 548
444 542
447 714
450 611
451 565
455 738
457 586
459 599
460 595
461 597
462 463
462 464
462 465
462 466
462 573
467 468
467 469
467 470
467 617
471 543
472 619
474 731
475 549
478 617
480 481
480 482
480 565
483 740
486 570
487 585
488 593
489 560
494 561
495 496
495 497
495 628
498 500
499 500
501 504
502 504
503 504
504 716
505 515
506 515
507 665
508 515
509 515
510 515
511 515
512 513
512 514
512 666
515 516
515 520
515 658
515 665
517 518
517 519
517 666
521 718
522 724
523 524
523 525
523 721
526 725
527 721
528 535
529 720
530 535
531 726
532 535
533 726
534 535
535 536
535 538
535 539
535 717
535 718
535 726
537 725
540 572
540 667
541 545
541 617
541 740
542 543
542 744
544 736
545 548
545 571
546 735
547 733
549 550
549 732
550 551
552 553
552 731
553 554
555 556
555 729
556 557
556 566
557 558
557 564
558 559
558 560
560 561
560 562
560 563
564 565
566 567
568 569
568 728
569 570
571 573
572 616
572 658
574 575
574 601
575 576
575 599
576 577
577 578
577 596
578 579
579 580
580 581
580 595
581 582
582 583
583 584
583 587
584 585
585 586
587 588
587 591
588 589
589 590
591 592
592 593
593 594
596 597
596 598
599 600
601 602
601 613
602 603
602 611
603 604
603 608
604 605
604 607
605 606
608 609
609 610
611 612
613 614
614 615
616 621
617 618
618 619
618 620
620 628
622 623
623 624
623 656
624 625
624 641
625 626
625 638
626 627
627 629
627 630
628 634
630 631
631 632
631 635
632 633
634 637
635 636
638 639
639 640
641 642
641 648
642 643
642 644
644 645
644 647
645 646
648 649
649 650
649 651
651 652
652 653
653 654
654 655
656 657
659 660
659 663
660 661
661 662
664 699
664 728
665 666
667 668
667 716
669 670
670 671
670 687
671 672
671 686
672 673
673 674
674 675
675 676
676 677
676 684
677 678
678 679
679 680
680 681
681 682
682 683
685 722
687 688
687 708
688 689
688 703
689 690
690 691
691 692
692 693
693 694
693 701
694 695
695 696
695 698
696 697
699 700
699 722
700 702
702 707
702 723
703 704
704 705
705 706
707 712
708 709
708 713
709 710
710 711
712 714
716 717
718 719
719 720
719 724
720 721
722 730
724 725
728 729
729 731
730 740
731 732
732 733
733 734
734 735
735 736
736 737
737 738
738 739
738 744
739 741
739 742
742 743
