# poaceae_sub clade from the Open Tree of Life; 6017 nodes, 6016 edges; canonical sorted order
0 1
0 5789
2 3
2 5804
4 6
5 6
6 7
6 8
6 5957
9 10
9 5616
11 5597
12 5597
13 5597
14 5597
15 5597
16 5597
17 5597
18 5597
19 5597
20 5612
21 5597
22 5597
23 5597
24 5597
25 5597
26 5597
27 5597
28 5597
29 5597
30 5597
31 5597
32 5597
33 5597
34 5597
35 5604
36 5598
37 38
38 1750
39 46
39 3642
39 5961
40 46
41 46
42 46
43 46
44 46
45 46
46 47
46 48
49 51
50 51
51 5991
52 54
53 54
54 55
54 5651
56 57
56 5469
58 59
59 5830
60 61
60 62
60 5615
63 64
64 65
64 5804
66 67
66 68
66 69
66 70
66 71
66 72
66 73
66 74
66 75
66 76
66 5393
77 85
78 85
79 85
80 85
81 85
82 85
83 85
84 85
85 86
85 87
85 88
85 89
85 90
85 91
85 5688
92 95
93 95
94 95
95 96
95 5583
97 5671
98 5671
99 5671
100 5671
101 5671
102 5671
103 5671
104 5671
105 5671
106 5671
107 5671
108 5671
109 5671
110 5671
111 5671
112 5671
113 5671
114 5671
115 5671
116 5684
117 5671
118 5671
119 5671
120 5671
121 5671
122 5671
123 5671
124 5671
125 5671
126 5671
127 5671
128 5671
129 5671
130 5671
131 5671
132 5671
133 5671
134 5671
135 5671
136 5671
137 5671
138 5671
139 5671
140 5671
141 5671
142 5671
143 5671
144 5678
145 5671
146 5671
147 148
147 5671
149 5671
150 5683
151 5671
152 5671
153 5671
154 5671
155 5685
156 5671
157 5671
158 5671
159 160
159 161
159 162
159 5682
163 5671
164 5671
165 5671
166 167
166 5671
168 5671
169 5671
170 5671
171 5671
172 5671
173 5671
174 5671
175 5671
176 5671
177 5671
178 5671
179 5671
180 5671
181 5671
182 5671
183 5671
184 5671
185 5671
186 5671
187 5671
188 5671
189 5671
190 5671
191 5671
192 5671
193 5671
194 5671
195 5671
196 5671
197 5671
198 5671
199 5671
200 5671
201 5672
202 5671
203 5671
204 5671
205 5671
206 5671
207 5671
208 5671
209 5671
210 5671
211 5671
212 5671
213 5671
214 5671
215 5671
216 5671
217 5671
218 5671
219 5671
220 5671
221 5671
222 5671
223 5671
224 5683
225 5671
226 5671
227 5671
228 5671
229 5671
230 5671
231 5671
232 5671
233 5671
234 5671
235 5671
236 237
236 238
236 5687
239 5671
240 241
240 5733
242 243
243 244
243 245
243 246
243 247
243 253
243 254
243 255
243 3709
248 249
249 250
249 251
249 252
249 5789
256 5577
257 5577
258 5577
259 5577
260 5577
261 5577
262 5577
263 5578
264 5577
265 5577
266 5577
267 268
267 5732
269 270
270 5951
271 281
272 281
273 281
274 281
275 281
276 281
277 281
278 281
279 281
280 281
281 282
281 283
281 284
281 285
281 286
281 5793
287 296
288 296
289 296
290 296
291 296
292 296
293 296
294 296
295 296
296 297
296 298
296 299
296 300
296 301
296 302
296 303
296 5691
304 5832
305 5832
306 5832
307 5832
308 5832
309 5832
310 5832
311 5832
312 313
312 314
312 315
312 316
312 317
312 318
312 5415
319 5832
320 5832
321 5832
322 5832
323 5832
324 5832
325 5832
326 5832
327 5832
328 5416
329 5832
330 5832
331 5832
332 5409
333 5832
334 5832
335 5832
336 5832
337 5832
338 5832
339 5832
340 5832
341 5832
342 5832
343 5832
344 5832
345 5832
346 5832
347 5832
348 5832
349 5832
350 5832
351 5832
352 5832
353 5832
354 355
354 356
354 5832
357 5832
358 5832
359 5832
360 5832
361 5832
362 5832
363 5832
364 5832
365 5832
366 5832
367 5832
368 369
368 370
368 5832
371 5832
372 5418
373 5832
374 5832
375 376
375 377
375 5832
378 5832
379 5832
380 5832
381 5832
382 5832
383 5832
384 5832
385 5403
386 5832
387 388
387 5399
389 390
389 5832
391 5832
392 5832
393 5409
394 5832
395 5832
396 5832
397 5832
398 5832
399 5832
400 5832
401 5832
402 5832
403 5832
404 5832
405 5832
406 5832
407 5832
408 5832
409 5832
410 5832
411 5832
412 5832
413 5832
414 5832
415 5832
416 5421
417 5832
418 5832
419 5832
420 5832
421 5832
422 5832
423 5832
424 5832
425 5832
426 428
427 428
428 5832
429 5832
430 5832
431 5832
432 5832
433 5832
434 5832
435 5832
436 5832
437 5832
438 5832
439 5832
440 441
440 5832
442 5416
443 5832
444 5832
445 5832
446 6003
447 5832
448 5832
449 5832
450 5832
451 5832
452 5832
453 5832
454 5832
455 456
455 5417
457 5832
458 5832
459 5413
460 5832
461 5832
462 5832
463 5832
464 5832
465 5832
466 5832
467 5832
468 5401
469 5832
470 5415
471 5832
472 5832
473 5832
474 5832
475 5832
476 5832
477 5832
478 5832
479 5832
480 5832
481 5832
482 483
482 484
482 5423
485 5832
486 5832
487 5832
488 489
488 5832
490 5832
491 5832
492 5832
493 5832
494 5832
495 5832
496 5832
497 5832
498 5832
499 5832
500 5832
501 5424
502 5832
503 5832
504 5832
505 5832
506 5832
507 5832
508 5832
509 5832
510 5832
511 5832
512 5832
513 5832
514 5832
515 5404
516 5832
517 5832
518 5424
519 522
520 522
521 522
522 5832
523 5832
524 5832
525 5832
526 5832
527 5832
528 5832
529 5832
530 5832
531 5832
532 5832
533 5832
534 5832
535 5832
536 5832
537 5832
538 5832
539 5832
540 5832
541 5832
542 5832
543 5832
544 5832
545 5832
546 5832
547 548
547 549
547 550
547 5423
551 552
551 553
551 554
551 555
551 556
551 557
551 558
551 5408
559 5832
560 5832
561 562
561 5832
563 5832
564 5404
565 5832
566 5832
567 5832
568 5832
569 5832
570 5412
571 5832
572 5832
573 5832
574 5832
575 5832
576 5832
577 5832
578 5832
579 5832
580 5832
581 582
581 583
581 5832
584 5832
585 5832
586 5832
587 5832
588 5420
589 590
589 591
589 5421
592 5832
593 5832
594 5832
595 5832
596 5832
597 5832
598 5832
599 5832
600 5405
601 5832
602 5832
603 5832
604 605
604 5832
606 5832
607 5832
608 609
608 610
608 5399
611 5832
612 5832
613 5832
614 5832
615 5419
616 5832
617 5832
618 5832
619 5832
620 5832
621 5832
622 5832
623 5832
624 625
624 626
624 5832
627 5832
628 5832
629 5832
630 5832
631 5832
632 5832
633 5832
634 5832
635 5832
636 5403
637 5832
638 5832
639 5832
640 641
640 5832
642 5419
643 5832
644 5832
645 5832
646 5832
647 5832
648 5832
649 5832
650 5832
651 5832
652 5832
653 5832
654 5832
655 5832
656 5832
657 5832
658 5622
659 5622
660 5622
661 5622
662 5622
663 5622
664 5622
665 5622
666 5622
667 5622
668 5735
669 5622
670 5622
671 5622
672 5622
673 5622
674 5622
675 5622
676 5622
677 5622
678 5622
679 5622
680 682
681 682
682 683
682 684
682 685
682 686
682 5803
687 5619
688 5619
689 5752
690 5619
691 5619
692 5619
693 5619
694 5619
695 5619
696 5619
697 5619
698 5619
699 5619
700 5619
701 5619
702 5619
703 5619
704 5619
705 5619
706 5619
707 708
707 709
707 710
707 5759
711 5619
712 5619
713 5619
714 5619
715 5619
716 5619
717 5619
718 5619
719 5619
720 5619
721 5619
722 5619
723 5759
724 5619
725 5619
726 5619
727 5619
728 5619
729 5619
730 5619
731 5619
732 733
732 5758
734 5619
735 5619
736 5619
737 5619
738 5619
739 5619
740 5619
741 5619
742 5619
743 749
744 749
745 749
746 749
747 749
748 749
749 750
749 751
749 752
749 5390
753 755
754 755
755 4571
756 757
756 5649
758 5950
759 760
760 762
760 5949
760 5950
761 5950
763 764
764 5949
765 5360
766 768
766 5178
766 5358
767 5358
769 5360
770 5359
771 829
772 829
773 829
774 5773
775 829
776 829
777 829
778 829
779 829
780 829
781 829
782 829
783 829
784 829
785 829
786 829
787 829
788 829
789 829
790 829
791 829
792 829
793 829
794 5774
795 829
796 829
797 829
798 829
799 829
800 829
801 829
802 5773
803 829
804 829
805 829
806 829
807 829
808 829
809 829
810 829
811 829
812 5774
813 829
814 829
815 829
816 829
817 829
818 829
819 829
820 829
821 829
822 829
823 829
824 829
825 829
826 829
827 829
828 829
829 830
829 831
829 832
829 833
829 834
829 835
829 836
829 837
829 838
829 839
829 840
829 841
829 842
829 843
829 844
829 845
829 846
829 847
829 848
829 849
829 850
829 851
829 852
829 853
829 854
829 855
829 856
829 857
829 858
829 859
829 860
829 5772
829 5773
861 862
862 863
862 5979
864 867
865 867
866 867
867 5741
868 872
869 872
870 872
871 872
872 5893
873 5656
874 5667
875 5661
876 5656
877 878
877 5665
879 5656
880 5656
881 5656
882 5656
883 5656
884 5656
885 5656
886 5656
887 5656
888 5669
889 5656
890 5656
891 5656
892 5656
893 5656
894 5656
895 5666
896 5656
897 5667
898 5656
899 5656
900 5663
901 5656
902 5656
903 5656
904 5664
905 5656
906 5656
907 5666
908 5656
909 5656
910 5656
911 5656
912 5656
913 959
914 959
915 959
916 959
917 918
917 919
917 5901
920 921
920 922
920 923
920 5897
924 959
925 959
926 959
927 959
928 929
928 930
928 931
928 5900
932 5899
933 959
934 959
935 959
936 959
937 959
938 959
939 959
940 959
941 959
942 5898
943 959
944 959
945 946
945 947
945 948
945 5901
949 959
950 959
951 959
952 959
953 959
954 959
955 959
956 959
957 959
958 959
959 960
959 963
959 964
959 965
959 966
959 967
959 968
959 969
959 970
959 971
959 972
959 973
959 974
959 975
959 976
959 977
959 978
959 979
959 980
959 981
959 982
959 985
959 986
959 988
959 989
959 5897
960 961
960 962
982 983
982 984
987 5900
989 5896
990 5449
991 5449
992 5449
993 5449
994 5449
995 5449
996 5449
997 5449
998 5449
999 5449
1000 5449
1001 5449
1002 5449
1003 5449
1004 5449
1005 5449
1006 5449
1007 5546
1008 5608
1009 5449
1010 5449
1011 5449
1012 5449
1013 5449
1014 5449
1015 5449
1016 5449
1017 5449
1018 5449
1019 5449
1020 5449
1021 5449
1022 5449
1023 5449
1024 5449
1025 5449
1026 5449
1027 5449
1028 5449
1029 5449
1030 5449
1031 5449
1032 5449
1033 5449
1034 5449
1035 5449
1036 5449
1037 5449
1038 5449
1039 5449
1040 5449
1041 5449
1042 5449
1043 5449
1044 5551
1045 5449
1046 5449
1047 5552
1048 5449
1049 5449
1050 5449
1051 5449
1052 5449
1053 5449
1054 5556
1055 5449
1056 5548
1057 5449
1058 5449
1059 5449
1060 5449
1061 5449
1062 5449
1063 5449
1064 5449
1065 5449
1066 5449
1067 5449
1068 5449
1069 5449
1070 5449
1071 1072
1072 1073
1072 5839
1074 1075
1075 1076
1075 5956
1077 1078
1078 5820
1079 1082
1080 1082
1081 1082
1082 5583
1083 1085
1084 1085
1085 5793
1086 5384
1087 1088
1087 1089
1087 1090
1090 5383
1090 5384
1091 5384
1092 1104
1093 1104
1094 1104
1095 1104
1096 1104
1097 1104
1098 1104
1099 1104
1100 1104
1101 1104
1102 1104
1103 1104
1104 1105
1104 1106
1104 1107
1104 1108
1104 1109
1104 1110
1104 5659
1111 1112
1112 5166
1113 5152
1113 5519
1114 5526
1115 5464
1116 5464
1117 5464
1118 5524
1119 5464
1120 5464
1121 5464
1122 5521
1123 5464
1124 5506
1125 5464
1126 5515
1127 5526
1128 5464
1129 1130
1129 5510
1131 5464
1132 5464
1133 5464
1134 5464
1135 5464
1136 5464
1137 5520
1138 5464
1139 5464
1140 5464
1141 5464
1142 5524
1143 5510
1144 5464
1145 5464
1146 5464
1147 5464
1148 5464
1149 5464
1150 5464
1151 5464
1152 5464
1153 5464
1154 5464
1155 5464
1156 5525
1157 5464
1158 5464
1159 5527
1160 5464
1161 5514
1162 5464
1163 5528
1164 5464
1165 5464
1166 5522
1167 5464
1168 5464
1169 5464
1170 5464
1171 5464
1172 5464
1173 5525
1174 5518
1175 5464
1176 5464
1177 5464
1178 5464
1179 5464
1180 5528
1181 5464
1182 5464
1183 5523
1184 5464
1185 5464
1186 5464
1187 5464
1188 5464
1189 5521
1190 5464
1191 5464
1192 1193
1192 1194
1192 5523
1195 5464
1196 5464
1197 5464
1198 5464
1199 5464
1200 5464
1201 5513
1202 5464
1203 5464
1204 5464
1205 5464
1206 5464
1207 5464
1208 5464
1209 5464
1210 5464
1211 5519
1212 5516
1213 5464
1214 5464
1215 5481
1216 5464
1217 5509
1218 5464
1219 5464
1220 5464
1221 5464
1222 5464
1223 5464
1224 5464
1225 5464
1226 5464
1227 5464
1228 5464
1229 5509
1230 5481
1231 5464
1232 5464
1233 1236
1234 1236
1235 1236
1236 1237
1236 1238
1236 5819
1239 1243
1240 1243
1241 1243
1242 1243
1243 1244
1244 2351
1244 5836
1245 1249
1246 1249
1247 1249
1248 1249
1249 5790
1250 1251
1250 1252
1250 1253
1253 5361
1254 1255
1254 1256
1254 5573
1257 1259
1258 1259
1259 5475
1260 1261
1261 5619
1262 5821
1263 5821
1264 1265
1264 1268
1266 1268
1267 1268
1268 5816
1268 5821
1269 1271
1270 1271
1271 5624
1272 1273
1273 5175
1274 1282
1275 1282
1276 1282
1277 1282
1278 1282
1279 1282
1280 1282
1281 1282
1282 1283
1282 1284
1282 5750
1285 5367
1286 5370
1287 1310
1288 5378
1289 1310
1290 5379
1291 1292
1291 1293
1291 5379
1294 1295
1294 1296
1294 5369
1297 5376
1298 1299
1298 1300
1298 1301
1298 5372
1302 5377
1303 5380
1304 1310
1305 5382
1306 5370
1307 5372
1308 5375
1309 5381
1310 5177
1310 5364
1311 5366
1312 1313
1312 1314
1312 5373
1315 1316
1315 1317
1315 5381
1318 1319
1318 1320
1318 1321
1318 5382
1321 1322
1323 5371
1324 5369
1325 5380
1326 5936
1327 5936
1328 5936
1329 5936
1330 5936
1331 5936
1332 5936
1333 5936
1334 5936
1335 5936
1336 5936
1337 5936
1338 5936
1339 5936
1340 5936
1341 5936
1342 5940
1343 5936
1344 1345
1344 1346
1344 5936
1347 5936
1348 5936
1349 5936
1350 5936
1351 5936
1352 5942
1353 5936
1354 1355
1354 1356
1354 5936
1357 5936
1358 5936
1359 5936
1360 5936
1361 5936
1362 5936
1363 5936
1364 5938
1365 5936
1366 5936
1367 5944
1368 5936
1369 5936
1370 5936
1371 5943
1372 5936
1373 5943
1374 5936
1375 5936
1376 5936
1377 1378
1377 5936
1379 5936
1380 5936
1381 5936
1382 5936
1383 5936
1384 5936
1385 5936
1386 5936
1387 5942
1388 5936
1389 5936
1390 5944
1391 5936
1392 5936
1393 1394
1394 5579
1395 1396
1395 1397
1395 1398
1395 1399
1395 1400
1395 5931
1401 1408
1401 5752
1401 5753
1401 5756
1402 5756
1403 5757
1404 5755
1405 5755
1406 1407
1406 5753
1409 5757
1410 5754
1411 1412
1412 1413
1412 6011
1414 1415
1415 5751
1416 1417
1416 1418
1416 1419
1416 5582
1420 5962
1421 5962
1422 5962
1423 1424
1423 5962
1425 5962
1426 5962
1427 5962
1428 5962
1429 1430
1429 1431
1429 5963
1432 5962
1433 5962
1434 1435
1434 5962
1436 5962
1437 5962
1438 5962
1439 5962
1440 5962
1441 5962
1442 5962
1443 5962
1444 5964
1445 5962
1446 5963
1447 1455
1448 1455
1449 1455
1450 1455
1451 1455
1452 1455
1453 1455
1454 1455
1455 1456
1455 1457
1455 1458
1455 5428
1459 1462
1460 1462
1461 1462
1462 1463
1462 1464
1462 1465
1462 1466
1462 5839
1467 1468
1467 5624
1469 1476
1469 5728
1470 1471
1470 1472
1470 1476
1473 1476
1474 1476
1475 1476
1477 1478
1477 5976
1479 1480
1479 1485
1481 1485
1482 1485
1483 1484
1483 1485
1485 1486
1485 1487
1485 1488
1485 1489
1485 5794
1490 5267
1491 5179
1492 5263
1493 5270
1494 5271
1495 5179
1496 5179
1497 5271
1498 5270
1499 5266
1500 5179
1501 5265
1502 5269
1503 5258
1504 5179
1505 5179
1506 5179
1507 5268
1508 5268
1509 5263
1510 5179
1511 5179
1512 5179
1513 1514
1513 6006
1515 1517
1516 1517
1517 1518
1517 2617
1519 1521
1520 1521
1521 5440
1522 1540
1522 5974
1523 1540
1524 1540
1525 1540
1526 1540
1527 1540
1528 1540
1529 1540
1530 1540
1531 1540
1532 1540
1533 1540
1534 1540
1535 1540
1536 1540
1537 1540
1538 1539
1538 1540
1540 1541
1540 1542
1540 1543
1540 1544
1540 1545
1540 1546
1547 1588
1548 1588
1549 1588
1550 1588
1551 1588
1552 1588
1553 1588
1554 1588
1555 1588
1556 1588
1557 1588
1558 1588
1559 1588
1560 1588
1561 1588
1562 1588
1563 1588
1564 1588
1565 1588
1566 1588
1567 1588
1568 1588
1569 1588
1570 1588
1571 1572
1571 1588
1573 1588
1574 1588
1575 1588
1576 1588
1577 1588
1578 1588
1579 1588
1580 1588
1581 1588
1582 1588
1583 1584
1583 1588
1585 1588
1586 1588
1587 1588
1588 1589
1588 1590
1588 1591
1588 1592
1588 1593
1588 1594
1588 1595
1588 1596
1588 1597
1588 1598
1588 1599
1588 1600
1588 1601
1588 1602
1588 1603
1588 1604
1588 1605
1588 5672
1606 1607
1607 1608
1607 5935
1609 1610
1609 1611
1609 1612
1609 1613
1609 1614
1609 1615
1609 1616
1609 1617
1609 1618
1609 1619
1609 1620
1609 1626
1609 1627
1609 1628
1609 1629
1609 1630
1609 1631
1609 1633
1609 1634
1609 1635
1609 1636
1609 1637
1609 1638
1609 1640
1609 1641
1609 1642
1609 1643
1609 5931
1609 5932
1621 1622
1621 1623
1621 1624
1621 1625
1621 5932
1631 1632
1639 5932
1644 1645
1645 1646
1646 4472
1646 5817
1647 1649
1648 1649
1649 1650
1649 5610
1651 1652
1652 5795
1653 1665
1654 1665
1655 1665
1656 1665
1657 1665
1658 1665
1659 1665
1660 1665
1661 1665
1662 1665
1663 1665
1664 1665
1665 1667
1665 1669
1665 5606
1665 5607
1666 5607
1667 1668
1670 5607
1671 1684
1672 5959
1673 1684
1674 1684
1675 1684
1676 1684
1677 1684
1678 1684
1679 1684
1680 1684
1681 1684
1682 1684
1683 1684
1684 1685
1684 1687
1684 1688
1684 5958
1684 5959
1686 5959
1689 1690
1690 5928
1691 1716
1692 1716
1693 5281
1694 5274
1695 5278
1696 1716
1697 1716
1698 1716
1699 1716
1700 1716
1701 5278
1702 1716
1703 1716
1704 1716
1705 1716
1706 5277
1707 1716
1708 5284
1709 5281
1710 5280
1711 5279
1712 1716
1713 5276
1714 1716
1715 1716
1716 1718
1716 1719
1716 1722
1716 1724
1716 5260
1716 5272
1716 5282
1717 5283
1720 5275
1721 5279
1723 5284
1725 5282
1726 1727
1727 5425
1728 3385
1728 5175
1728 5835
1729 1736
1730 1736
1731 1736
1732 1736
1733 1736
1734 1736
1735 1736
1736 1737
1736 1738
1736 1739
1736 1740
1736 1741
1736 1742
1736 1743
1736 1744
1736 1745
1736 5810
1746 1747
1747 5988
1748 1749
1748 5830
1750 1788
1750 5615
1751 1788
1752 1753
1752 1754
1752 1755
1752 1788
1756 1757
1756 1788
1758 1788
1759 1788
1760 1788
1761 1788
1762 1763
1762 1788
1764 1788
1765 1788
1766 1767
1766 1768
1766 1769
1766 1788
1770 1788
1771 1788
1772 1773
1772 1788
1774 1788
1775 1788
1776 1788
1777 1788
1778 1788
1779 1788
1780 1788
1781 1788
1782 1788
1783 1788
1784 1785
1784 1786
1784 1788
1786 1787
1788 1789
1788 1791
1788 1792
1788 1795
1788 1796
1788 1797
1788 1798
1788 1799
1788 1800
1788 1801
1788 1804
1788 1805
1788 1806
1788 1807
1788 1808
1788 1809
1788 1810
1789 1790
1792 1793
1792 1794
1801 1802
1801 1803
1811 5669
1812 5668
1813 5668
1814 5668
1815 5668
1816 5668
1817 5668
1818 5668
1819 5668
1820 5668
1821 5668
1822 5668
1823 5668
1824 5668
1825 5668
1826 5668
1827 1828
1827 1829
1827 5670
1830 5668
1831 5668
1832 5668
1833 5668
1834 5571
1835 5571
1836 5571
1837 5571
1838 5571
1839 5571
1840 5571
1841 5571
1842 5571
1843 5571
1844 5571
1845 5571
1846 5571
1847 5571
1848 5571
1849 5571
1850 5571
1851 5571
1852 5571
1853 5571
1854 5571
1855 5571
1856 5571
1857 5571
1858 5571
1859 5571
1860 5571
1861 5571
1862 5571
1863 5571
1864 5571
1865 5571
1866 5571
1867 5571
1868 5571
1869 5571
1870 5571
1871 5571
1872 5571
1873 5572
1874 5571
1875 5571
1876 5571
1877 1878
1877 1879
1877 5571
1880 5571
1881 5571
1882 5571
1883 5571
1884 5576
1885 5571
1886 5571
1887 5571
1888 5571
1889 5571
1890 5571
1891 5571
1892 5571
1893 5571
1894 5571
1895 5571
1896 5571
1897 5571
1898 5571
1899 5571
1900 5571
1901 5571
1902 5571
1903 5571
1904 5571
1905 5572
1906 5571
1907 5571
1908 5571
1909 5571
1910 5571
1911 5571
1912 5571
1913 5571
1914 5571
1915 5571
1916 5571
1917 5571
1918 5571
1919 1920
1919 5571
1921 5571
1922 5571
1923 5574
1924 5571
1925 5571
1926 5571
1927 1928
1927 5571
1929 5571
1930 5571
1931 5571
1932 5571
1933 5571
1934 5571
1935 5571
1936 5571
1937 5571
1938 5571
1939 5571
1940 5571
1941 5571
1942 5571
1943 5571
1944 5571
1945 5571
1946 5571
1947 5571
1948 5571
1949 5571
1950 5571
1951 5571
1952 5571
1953 5571
1954 5571
1955 5571
1956 5571
1957 5571
1958 5571
1959 5571
1960 5571
1961 5571
1962 5571
1963 5571
1964 5571
1965 5571
1966 5571
1967 5571
1968 5571
1969 5571
1970 5571
1971 5571
1972 5571
1973 5571
1974 5571
1975 5571
1976 5571
1977 5571
1978 5571
1979 5571
1980 5571
1981 5571
1982 5571
1983 5571
1984 5571
1985 5571
1986 5571
1987 5571
1988 5571
1989 5571
1990 5571
1991 5571
1992 5571
1993 5571
1994 5571
1995 5571
1996 5571
1997 5571
1998 5571
1999 5571
2000 5571
2001 5571
2002 5571
2003 5571
2004 5571
2005 5571
2006 5571
2007 5571
2008 5571
2009 5571
2010 5571
2011 5571
2012 5571
2013 5571
2014 5571
2015 5571
2016 5571
2017 5571
2018 5571
2019 5571
2020 5571
2021 5571
2022 5571
2023 5571
2024 5571
2025 5571
2026 5571
2027 5571
2028 5571
2029 5571
2030 5571
2031 5571
2032 5571
2033 5571
2034 5571
2035 5571
2036 5571
2037 5571
2038 5571
2039 5571
2040 5571
2041 5571
2042 5571
2043 5571
2044 5571
2045 5571
2046 5571
2047 5571
2048 5571
2049 5571
2050 5571
2051 5571
2052 5571
2053 5571
2054 5571
2055 5580
2056 5571
2057 5571
2058 5571
2059 5571
2060 5571
2061 5571
2062 5571
2063 5571
2064 5571
2065 5571
2066 5580
2067 5571
2068 5571
2069 5571
2070 5571
2071 5571
2072 5571
2073 5571
2074 5571
2075 5571
2076 5571
2077 5571
2078 5571
2079 5571
2080 5571
2081 5571
2082 5571
2083 5571
2084 5571
2085 5571
2086 5571
2087 5571
2088 5571
2089 5571
2090 5571
2091 5571
2092 5571
2093 5571
2094 5571
2095 5571
2096 5571
2097 5571
2098 5571
2099 5571
2100 5571
2101 5571
2102 5571
2103 5571
2104 5571
2105 5571
2106 5571
2107 5571
2108 5571
2109 5571
2110 5571
2111 2115
2112 2115
2113 2115
2114 2115
2115 2116
2115 5977
2117 2123
2118 2119
2118 2123
2120 2123
2121 2123
2122 2123
2123 5671
2124 2125
2125 2126
2125 2127
2125 5808
2128 5737
2129 5737
2130 5737
2131 5737
2132 5737
2133 5737
2134 5737
2135 5737
2136 5737
2137 5737
2138 5737
2139 5737
2140 5737
2141 5737
2142 5737
2143 5737
2144 5737
2145 5737
2146 5737
2147 5737
2148 5737
2149 5737
2150 5737
2151 5737
2152 5737
2153 5737
2154 5737
2155 5737
2156 5737
2157 5737
2158 5737
2159 5737
2160 5737
2161 5737
2162 5737
2163 5737
2164 5737
2165 5737
2166 5737
2167 5737
2168 5737
2169 5737
2170 5741
2171 5737
2172 5737
2173 5737
2174 5737
2175 5737
2176 5737
2177 5737
2178 5737
2179 5737
2180 5737
2181 5737
2182 5737
2183 5737
2184 5737
2185 2199
2186 2199
2187 5955
2188 2199
2189 2190
2189 2191
2189 2192
2189 2199
2193 2199
2194 2199
2195 2199
2196 2199
2197 2199
2198 2199
2199 2203
2199 2204
2199 2205
2199 2206
2199 2208
2199 2209
2199 2210
2199 2211
2199 2212
2199 2213
2199 5954
2199 5955
2200 2201
2200 2202
2200 5955
2206 2207
2214 2226
2215 2226
2216 2217
2216 2218
2216 2219
2216 2220
2216 2226
2217 2221
2218 2222
2219 2223
2220 2224
2225 2226
2226 5921
2227 2230
2228 2230
2229 2230
2230 2231
2230 5923
2232 2233
2233 5476
2234 5904
2235 2236
2235 5788
2237 2238
2238 2239
2238 2240
2238 5440
2241 2242
2242 5538
2243 2244
2243 2245
2243 2246
2243 2247
2243 2248
2243 2249
2243 2250
2243 2281
2251 2281
2252 2281
2253 2281
2254 2281
2255 2281
2256 2281
2257 2281
2258 2281
2259 5600
2260 2281
2261 5602
2262 2281
2263 2281
2264 2281
2265 2281
2266 2281
2267 2281
2268 2281
2269 2281
2270 2281
2271 2281
2272 2281
2273 2281
2274 2281
2275 2276
2275 2281
2277 2281
2278 2281
2279 2281
2280 2281
2281 2282
2281 2283
2281 2284
2281 2285
2281 2286
2281 2287
2281 2288
2281 2289
2281 2290
2281 2291
2281 2293
2281 2294
2281 2295
2281 5599
2281 5600
2292 5601
2296 5602
2297 2301
2298 2301
2299 2301
2300 2301
2301 5791
2302 2314
2303 2314
2304 2314
2305 2314
2306 2314
2307 2314
2308 2314
2309 2314
2310 2314
2311 2312
2311 2314
2313 2314
2314 2315
2314 2316
2314 2317
2314 2318
2314 6016
2319 2320
2319 2321
2319 5952
2322 2328
2323 5953
2324 2328
2325 2328
2326 2328
2327 2328
2328 2329
2328 2330
2328 5951
2328 5952
2331 5953
2332 2344
2333 2344
2334 2344
2335 2344
2336 2344
2337 2344
2338 2344
2339 2344
2340 2344
2341 2344
2342 2344
2343 2344
2344 2345
2344 2346
2344 2347
2344 2348
2344 2349
2344 2350
2344 5630
2351 2352
2351 2353
2354 2359
2355 2359
2356 2359
2357 2359
2358 2359
2359 2360
2359 5650
2361 5886
2362 2363
2363 2364
2363 5393
2365 6006
2366 6006
2367 6006
2368 5171
2369 5172
2370 6006
2371 5170
2372 6006
2373 6006
2374 5169
2375 6006
2376 6006
2377 6006
2378 6006
2379 6006
2380 6006
2381 6006
2382 6006
2383 5172
2384 6006
2385 6006
2386 5159
2387 5171
2388 6006
2389 6006
2390 6006
2391 5948
2392 5925
2393 5925
2394 5925
2395 5925
2396 5925
2397 5925
2398 5947
2399 5925
2400 5925
2401 5925
2402 5925
2403 5937
2404 5948
2405 5925
2406 5925
2407 2411
2408 2411
2409 2411
2410 2411
2411 2412
2411 2413
2411 5613
2414 2415
2415 6010
2416 2422
2417 2422
2418 2422
2419 2422
2420 2422
2421 2422
2422 5909
2423 5162
2424 2441
2425 5994
2426 5161
2427 6015
2428 5157
2429 5158
2430 5164
2431 2432
2431 5165
2433 2434
2433 2435
2433 5163
2436 5164
2437 2438
2437 5160
2439 5841
2440 5166
2441 6016
2442 5160
2443 2454
2444 2454
2445 2454
2446 2454
2447 2454
2448 2454
2449 2454
2450 2454
2451 2454
2452 2454
2453 2454
2454 2455
2454 2456
2454 2457
2454 2458
2454 5637
2459 2493
2460 5432
2461 2493
2462 2493
2463 2493
2464 2493
2465 2493
2466 2493
2467 2493
2468 2493
2469 2493
2470 2493
2471 2493
2472 2493
2473 2493
2474 2493
2475 2493
2476 2493
2477 2493
2478 2493
2479 2493
2480 5433
2481 2493
2482 2493
2483 2493
2484 2493
2485 2493
2486 2493
2487 2493
2488 2493
2489 5433
2490 2493
2491 2493
2492 2493
2493 2494
2493 2496
2493 2497
2493 2499
2493 2500
2493 2501
2493 2502
2493 2503
2493 2504
2493 2505
2493 2506
2493 2507
2493 2508
2493 2510
2493 2511
2493 5430
2495 5430
2497 2498
2509 5431
2511 3971
2511 5429
2512 2513
2512 5535
2514 5535
2515 5535
2516 5535
2517 5535
2518 5535
2519 5535
2520 5535
2521 5535
2522 5535
2523 5535
2524 5535
2525 5547
2526 5535
2527 5535
2528 5535
2529 5535
2530 5535
2531 5535
2532 5535
2533 5535
2534 5535
2535 5535
2536 5540
2537 5535
2538 5549
2539 5535
2540 5535
2541 5535
2542 5535
2543 5535
2544 5535
2545 5550
2546 5535
2547 2548
2547 5748
2549 2550
2549 2552
2551 2552
2552 2553
2552 5894
2553 2554
2555 2556
2555 2557
2555 2558
2555 5668
2559 2560
2559 2561
2559 2562
2559 2563
2559 2564
2559 2565
2559 2566
2559 2567
2559 2568
2559 2569
2559 2570
2559 2571
2559 2572
2559 2573
2559 2574
2559 2575
2559 2576
2559 2577
2559 2578
2559 2579
2559 2580
2559 2581
2559 2582
2559 2583
2559 2584
2559 2585
2559 2586
2559 2587
2559 2588
2559 2589
2559 2590
2559 2591
2559 2592
2559 2593
2559 5735
2594 2595
2595 2596
2595 5727
2597 2605
2598 2605
2599 2605
2600 2605
2601 2605
2602 2605
2603 2605
2604 2605
2605 2606
2605 2607
2605 2609
2605 2610
2605 2611
2605 2612
2605 2613
2605 2614
2605 5935
2607 2608
2615 2616
2616 5650
2617 2618
2617 5971
2618 2619
2620 6009
2621 6008
2622 6008
2623 6008
2624 2641
2625 2641
2626 2641
2627 2641
2628 2641
2629 2641
2630 2641
2631 2641
2632 2641
2633 2641
2634 2641
2635 2641
2636 2641
2637 2641
2638 2641
2639 2641
2640 2641
2641 2642
2641 2643
2641 2644
2641 2645
2641 2646
2641 2647
2641 2648
2641 2649
2641 2651
2641 2652
2641 2653
2641 2654
2641 2655
2641 5620
2649 2650
2656 2658
2657 5385
2658 5383
2658 5385
2659 5385
2660 2665
2661 2665
2662 2665
2663 2665
2664 2665
2665 2666
2665 2667
2665 2668
2665 2669
2665 2670
2665 5691
2671 2672
2671 5766
2673 2674
2674 5812
2675 2676
2675 2677
2675 2685
2678 2685
2679 2685
2680 2685
2681 2685
2682 2685
2683 2685
2684 2685
2685 2686
2685 2687
2685 2688
2685 2689
2685 5624
2690 2699
2691 2699
2692 2699
2693 2699
2694 2699
2695 2696
2695 2697
2695 2699
2698 2699
2699 2700
2699 2701
2699 2702
2699 2703
2699 5986
2703 2704
2703 2705
2706 5982
2707 2709
2707 5815
2708 2709
2709 2710
2711 2712
2712 5174
2713 3533
2714 2715
2715 5391
2716 2717
2717 5907
2718 2720
2719 2720
2720 2721
2720 5157
2722 2723
2723 2724
2723 5933
2725 5638
2726 5625
2727 5625
2728 5625
2729 5625
2730 5625
2731 5625
2732 5625
2733 5747
2734 5625
2735 5625
2736 5636
2737 2738
2738 5644
2739 2742
2740 2742
2741 2742
2742 6016
2743 2744
2744 5438
2745 2746
2745 2747
2745 2748
2745 5636
2749 5653
2750 5653
2751 5653
2752 5653
2753 5653
2754 5654
2755 2762
2756 2762
2757 2762
2758 2762
2759 2762
2760 2762
2761 2762
2762 2763
2762 2764
2762 2765
2762 2766
2766 5905
2767 2768
2768 2769
2768 2771
2768 2772
2768 2773
2768 5769
2769 2770
2774 2778
2775 2778
2776 2778
2777 2778
2778 5467
2779 2784
2780 2784
2781 2784
2782 2784
2783 2784
2784 2785
2784 5802
2786 2787
2786 2788
2786 5593
2789 2795
2790 2795
2791 2795
2792 2795
2793 2795
2794 2795
2795 5734
2796 2797
2797 5776
2798 2799
2798 2800
2798 2801
2801 5435
2802 2803
2803 5981
2804 2805
2805 5591
2806 2808
2807 2808
2808 5473
2809 2811
2810 2811
2811 5454
2812 5798
2813 5798
2814 5798
2815 5798
2816 5798
2817 5798
2818 5799
2819 5798
2820 5798
2821 5798
2822 5798
2823 5798
2824 5798
2825 5798
2826 5798
2827 5798
2828 5798
2829 5798
2830 5798
2831 5675
2832 5675
2833 5675
2834 5675
2835 5675
2836 5675
2837 5675
2838 5675
2839 5675
2840 5675
2841 5675
2842 5675
2843 5675
2844 5675
2845 5675
2846 5675
2847 5675
2848 5675
2849 5676
2850 5675
2851 5675
2852 5675
2853 5675
2854 5675
2855 5675
2856 5675
2857 5675
2858 5675
2859 5675
2860 5675
2861 5675
2862 5678
2863 5675
2864 5675
2865 5675
2866 5675
2867 5675
2868 5675
2869 5675
2870 5675
2871 5675
2872 5675
2873 5675
2874 5675
2875 5675
2876 5675
2877 5675
2878 5675
2879 5675
2880 5677
2881 5675
2882 5675
2883 5675
2884 5675
2885 5675
2886 5675
2887 5675
2888 5675
2889 5675
2890 5675
2891 2896
2892 2896
2893 2896
2894 2896
2895 2896
2896 2897
2896 5676
2898 2923
2899 2923
2900 2923
2901 2923
2902 2923
2903 2923
2904 2923
2905 2923
2906 2923
2907 2923
2908 2923
2909 2923
2910 2923
2911 2923
2912 2923
2913 2923
2914 2923
2915 2923
2916 2923
2917 2923
2918 2923
2919 2923
2920 2923
2921 2923
2922 2923
2923 2924
2923 2925
2923 2926
2923 2927
2923 2928
2923 2929
2923 2930
2923 2931
2923 2932
2923 5769
2933 5618
2934 2935
2934 5695
2936 5434
2937 5428
2938 5428
2939 5428
2940 5428
2941 5428
2942 5439
2943 5428
2944 5428
2945 5428
2946 5428
2947 5428
2948 5428
2949 5428
2950 5428
2951 5428
2952 5428
2953 5428
2954 5428
2955 5428
2956 5428
2957 5428
2958 5428
2959 5428
2960 5428
2961 5428
2962 5428
2963 5428
2964 5428
2965 5428
2966 5428
2967 5428
2968 5428
2969 5428
2970 5428
2971 5428
2972 5436
2973 5428
2974 5428
2975 5428
2976 5428
2977 5428
2978 5428
2979 5428
2980 5428
2981 5428
2982 5428
2983 5428
2984 5428
2985 5428
2986 5428
2987 5428
2988 5428
2989 5428
2990 5428
2991 5428
2992 5428
2993 5428
2994 5428
2995 5428
2996 5428
2997 5428
2998 5428
2999 5439
3000 5428
3001 5428
3002 5428
3003 5428
3004 5428
3005 5428
3006 5428
3007 5428
3008 5428
3009 5428
3010 5428
3011 5428
3012 5428
3013 5428
3014 5428
3015 5428
3016 5428
3017 5428
3018 5428
3019 5428
3020 5428
3021 5428
3022 5428
3023 5428
3024 5428
3025 5428
3026 5428
3027 5428
3028 5428
3029 5428
3030 5428
3031 5428
3032 5428
3033 5428
3034 5428
3035 5428
3036 5428
3037 5428
3038 5428
3039 3040
3040 5446
3041 5643
3042 5643
3043 5643
3044 5643
3045 5643
3046 5643
3047 5643
3048 5643
3049 5643
3050 3051
3050 5658
3052 5643
3053 5643
3054 5643
3055 5643
3056 5643
3057 5643
3058 5643
3059 5643
3060 5643
3061 5643
3062 5643
3063 5643
3064 5643
3065 5643
3066 5643
3067 5643
3068 5643
3069 5643
3070 5643
3071 5643
3072 5643
3073 5643
3074 5643
3075 5643
3076 5643
3077 5643
3078 5643
3079 5643
3080 5643
3081 5643
3082 5643
3083 5643
3084 5643
3085 5643
3086 5643
3087 5643
3088 5643
3089 5643
3090 5643
3091 5643
3092 5643
3093 5643
3094 5643
3095 5643
3096 5643
3097 5643
3098 5740
3099 5643
3100 5643
3101 5643
3102 5643
3103 5643
3104 5643
3105 5643
3106 5643
3107 5643
3108 5643
3109 5643
3110 5643
3111 5643
3112 5643
3113 5643
3114 5643
3115 5643
3116 5643
3117 5643
3118 5643
3119 5643
3120 5643
3121 5643
3122 5643
3123 5643
3124 5643
3125 5643
3126 5643
3127 5643
3128 3145
3129 3145
3130 3145
3131 3145
3132 3145
3133 3145
3134 3145
3135 3145
3136 3145
3137 3145
3138 3145
3139 3145
3140 3145
3141 3145
3142 3145
3143 3145
3144 3145
3145 3146
3145 3147
3145 3148
3145 3149
3145 3150
3145 3151
3145 3152
3145 3153
3145 5655
3154 3155
3154 3156
3154 5505
3157 3159
3158 3159
3159 5427
3160 3161
3160 5890
3162 3163
3163 5888
3164 3165
3164 5806
3166 3167
3166 5643
3168 3175
3169 3175
3170 3175
3171 3175
3172 3175
3173 3175
3174 3175
3175 3176
3175 3177
3175 3178
3175 3179
3175 3180
3175 3181
3175 3182
3175 3183
3175 5612
3184 3185
3185 5671
3186 3187
3186 5624
3188 3189
3188 5978
3190 5919
3191 5919
3192 5919
3193 5946
3194 5919
3195 5919
3196 5954
3197 5919
3198 5919
3199 5919
3200 5919
3201 5919
3202 5919
3203 5919
3204 5919
3205 5919
3206 3207
3207 3208
3207 3209
3207 3210
3207 5982
3211 3212
3212 5980
3213 3224
3214 3224
3215 3224
3216 3224
3217 3224
3218 3224
3219 3224
3220 3224
3221 3224
3222 3224
3223 3224
3224 3225
3224 3226
3224 3227
3224 3228
3224 3229
3224 3230
3224 3231
3224 5928
3232 3233
3232 5558
3234 3235
3235 5436
3236 3237
3237 3238
3237 5981
3239 3240
3240 3241
3240 5823
3242 3262
3243 3262
3244 3262
3245 3262
3246 3262
3247 3262
3248 3262
3249 3262
3250 3262
3251 3262
3252 3262
3253 3262
3254 3262
3255 3262
3256 3262
3257 3262
3258 3262
3259 3262
3260 3262
3261 3262
3262 3263
3262 3264
3262 3265
3262 3266
3262 3267
3262 3268
3262 3269
3262 5809
3270 3278
3271 3278
3272 3278
3273 3278
3274 3278
3275 3278
3276 3278
3277 3278
3278 3279
3278 3280
3278 3281
3278 3282
3278 5809
3283 3286
3284 3286
3285 3286
3286 3287
3286 3288
3286 5736
3289 3290
3290 5635
3291 3292
3292 5571
3293 3296
3294 3296
3295 3296
3296 5820
3297 3299
3298 3299
3299 5544
3300 3312
3301 3312
3302 3312
3303 3312
3304 3312
3305 3312
3306 3312
3307 3312
3308 3312
3309 3312
3310 3312
3311 3312
3312 3313
3312 3315
3312 3316
3312 3317
3312 3318
3312 3319
3312 3320
3312 3321
3312 3322
3312 3323
3312 3324
3312 5559
3313 3314
3325 3357
3326 3357
3327 3357
3328 3357
3329 3357
3330 3357
3331 3357
3332 3357
3333 3357
3334 3357
3335 3357
3336 3357
3337 3357
3338 3357
3339 3357
3340 3357
3341 3357
3342 3357
3343 3357
3344 3357
3345 3357
3346 3357
3347 3357
3348 3357
3349 3357
3350 3357
3351 3357
3352 3357
3353 3357
3354 3357
3355 3357
3356 3357
3357 3358
3357 3359
3357 3360
3357 3361
3357 3362
3357 3363
3357 3364
3357 3365
3357 3366
3357 3367
3357 3368
3357 3369
3357 3370
3357 3371
3357 3372
3357 3373
3357 3374
3357 3375
3357 3376
3357 3377
3357 3378
3357 3379
3357 5396
3380 3385
3381 3385
3382 5387
3383 3385
3384 5386
3385 3386
3385 3388
3385 5386
3387 5387
3389 3411
3390 3411
3391 3411
3392 3411
3393 3411
3394 3411
3395 3411
3396 3411
3397 3411
3398 3411
3399 3411
3400 3411
3401 3411
3402 3411
3403 3411
3404 3411
3405 3411
3406 3411
3407 3411
3408 3411
3409 3411
3410 3411
3411 3412
3411 3413
3411 3414
3411 3415
3411 3416
3411 3417
3411 3418
3411 3419
3411 5806
3420 3422
3421 3422
3422 3423
3422 3424
3422 3425
3422 5926
3426 3435
3427 3435
3428 3435
3429 3435
3430 3435
3431 3435
3432 3435
3433 3435
3434 3435
3435 3436
3435 3437
3435 3438
3435 3439
3435 3440
3435 3441
3435 3442
3435 3443
3443 5426
3444 3445
3445 5616
3446 3452
3447 3452
3448 3452
3449 3452
3450 3452
3451 3452
3452 5934
3453 5623
3454 5623
3455 5623
3456 5623
3457 5623
3458 5744
3459 5623
3460 5623
3461 5623
3462 5623
3463 5623
3464 5623
3465 5623
3466 5743
3467 5623
3468 5623
3469 5623
3470 5725
3471 5623
3472 5623
3473 5623
3474 5623
3475 5623
3476 5623
3477 5623
3478 3479
3479 5744
3480 3481
3481 5623
3482 5689
3483 5689
3484 5689
3485 5689
3486 5689
3487 5689
3488 5689
3489 5689
3490 5689
3491 5695
3492 5707
3493 5704
3494 5689
3495 5689
3496 5689
3497 5689
3498 5689
3499 5705
3500 5689
3501 5689
3502 5689
3503 3506
3504 3505
3504 3506
3504 5706
3507 3518
3508 3518
3509 3518
3510 3511
3510 3512
3510 5707
3512 3513
3512 3514
3512 3515
3512 3516
3512 3517
3512 3518
3519 5689
3520 5689
3521 5689
3522 5689
3523 5702
3524 3533
3525 3533
3526 3533
3527 5639
3528 3533
3529 3533
3530 3533
3531 3533
3532 3533
3533 3534
3533 3536
3533 3537
3533 3538
3533 3539
3533 5631
3533 5639
3535 5639
3540 3541
3540 3544
3542 3544
3543 3544
3544 5390
3545 3546
3546 5392
3547 3548
3547 5389
3549 3550
3550 5912
3551 3554
3552 3554
3553 3554
3554 5650
3555 3557
3556 3557
3557 5557
3558 3562
3559 3562
3560 3562
3561 3562
3562 3563
3562 3564
3562 5613
3565 3566
3566 3567
3566 3945
3568 5867
3569 5857
3570 5902
3571 5863
3572 5849
3573 5865
3574 5848
3575 5843
3576 5856
3577 3578
3577 5855
3579 5858
3580 5843
3581 5861
3582 5864
3583 5867
3584 5850
3585 5858
3586 5860
3587 5857
3588 5902
3589 5862
3590 5854
3591 5855
3592 5854
3593 5856
3594 5859
3595 5866
3596 3597
3596 3601
3598 3601
3599 5895
3600 3601
3601 3602
3601 5894
3601 5895
3603 5895
3604 3605
3604 5704
3606 3607
3607 5886
3608 3609
3609 5440
3610 3611
3611 3612
3611 5988
3613 3614
3614 3684
3615 3616
3615 5814
3617 5586
3618 3622
3619 5585
3620 3622
3621 5586
3622 3623
3622 5584
3622 5585
3622 5586
3624 5585
3625 3802
3625 5581
3625 5582
3625 5584
3626 3629
3627 3629
3628 3629
3629 3630
3629 5174
3631 3632
3632 5258
3633 3638
3634 3638
3635 3638
3636 3638
3637 3638
3638 3639
3638 3640
3638 3641
3638 5770
3642 3643
3644 3648
3645 3648
3646 3648
3647 3648
3648 3649
3648 3650
3648 5770
3651 3652
3652 3653
3652 5795
3654 3656
3655 3656
3656 3657
3656 5634
3658 3659
3659 5768
3660 3672
3661 3672
3662 3672
3663 3672
3664 3672
3665 3672
3666 3672
3667 3668
3667 3669
3667 3672
3670 3672
3671 3672
3672 3673
3672 3674
3672 3675
3672 5611
3675 3676
3675 3677
3678 3680
3679 3680
3680 3681
3680 3682
3680 3683
3680 5966
3684 5965
3684 5966
3685 5960
3686 5960
3687 5960
3688 5960
3689 5964
3690 5960
3691 5987
3692 5960
3693 3696
3694 3696
3695 3696
3696 3697
3696 3698
3696 3699
3696 5908
3700 3701
3700 5913
3702 3704
3703 3704
3704 5823
3705 3706
3706 5599
3707 3708
3707 5904
3709 3713
3709 3984
3709 5796
3709 5797
3710 3713
3711 3713
3712 3713
3713 3714
3713 3715
3713 3716
3713 3717
3713 3718
3713 3719
3720 3724
3721 3724
3722 3724
3723 3724
3724 5614
3725 3726
3725 5946
3727 3728
3727 5629
3729 5563
3730 3781
3730 5450
3731 5563
3732 3733
3732 5615
3734 5475
3735 3775
3736 5563
3737 3738
3737 3739
3737 3776
3740 5563
3741 5588
3742 3775
3743 3744
3743 5567
3745 5563
3746 5563
3747 3775
3748 3775
3749 3750
3749 3751
3749 5565
3752 5561
3753 3775
3754 5563
3755 5569
3756 5563
3757 3758
3757 3759
3757 5567
3760 3761
3760 5566
3762 5562
3763 5568
3764 5594
3765 3776
3766 5568
3767 5614
3768 3776
3769 5609
3770 3776
3771 5563
3772 3776
3773 5593
3774 3775
3775 3777
3775 5570
3776 5085
3776 5086
3776 5570
3778 5563
3779 5587
3780 5588
3782 3787
3783 3787
3784 3787
3785 3787
3786 3787
3787 3788
3787 3789
3787 3790
3787 3791
3787 5906
3792 3793
3793 5489
3794 3797
3795 3797
3796 3797
3797 3798
3797 3799
3797 3800
3797 5687
3801 3802
3803 3805
3804 3805
3805 3806
3805 5614
3807 5494
3808 5456
3809 5493
3810 5456
3811 5493
3812 5456
3813 5494
3814 5499
3815 5492
3816 5456
3817 5456
3818 5490
3819 5531
3820 5456
3821 5456
3822 5781
3823 3824
3823 3825
3823 5783
3826 3827
3826 5787
3828 5778
3829 5784
3830 3831
3830 5785
3832 5786
3833 5438
3834 5782
3835 5784
3836 5786
3837 3838
3837 3839
3837 3840
3837 5787
3841 5783
3842 5780
3843 5464
3844 5340
3845 5326
3846 5321
3847 5345
3848 5342
3849 5289
3850 5335
3851 5299
3852 5319
3853 5313
3854 3855
3854 3856
3854 5342
3857 3858
3857 5311
3859 5287
3860 5323
3861 3862
3861 3863
3861 5305
3864 5334
3865 5324
3866 5341
3867 5332
3868 5285
3869 5310
3870 5348
3871 5347
3872 5339
3873 5332
3874 5296
3875 5350
3876 5285
3877 5309
3878 5344
3879 5285
3880 5338
3881 5293
3882 5318
3883 5357
3884 5331
3885 5306
3886 5356
3887 5285
3888 5301
3889 5285
3890 5326
3891 5288
3892 5320
3893 3894
3893 5355
3895 5313
3896 5354
3897 5336
3898 5328
3899 5286
3900 5328
3901 5314
3902 5330
3903 5354
3904 5300
3905 3907
3906 3907
3907 5299
3908 5310
3909 5312
3910 5296
3911 3912
3911 3913
3911 3914
3911 5323
3915 3926
3916 5325
3917 5337
3918 5343
3919 5338
3920 5329
3921 5346
3922 5301
3923 5308
3924 5285
3925 5341
3926 3936
3926 5349
3927 5331
3928 5285
3929 5357
3930 5356
3931 5320
3932 5348
3933 5286
3934 5302
3935 5285
3937 5285
3938 5300
3939 5325
3940 5343
3941 5286
3942 5286
3943 5286
3944 5286
3945 3946
3945 4821
3945 5971
3946 3947
3946 3948
3946 3949
3946 3950
3946 3951
3946 3952
3946 3953
3946 3955
3946 3956
3946 3958
3946 3959
3946 3960
3946 3961
3946 3962
3946 5972
3954 5972
3957 5972
3963 5628
3964 5742
3965 5729
3966 3967
3967 5181
3968 3969
3969 5761
3970 3971
3971 3972
3973 5440
3974 3975
3974 5392
3976 5440
3977 5440
3978 5440
3979 5787
3980 5440
3981 5440
3982 5440
3983 5440
3984 3985
3986 3987
3986 5491
3988 3989
3988 4917
3990 3991
3990 5257
3990 5259
3992 5259
3993 5259
3994 5611
3995 5587
3996 3997
3996 5746
3998 4000
3999 4000
4000 4001
4000 4002
4000 5165
4003 5696
4004 5638
4005 5696
4006 4007
4006 5910
4008 4009
4008 5824
4010 4011
4010 4750
4012 4013
4013 4014
4013 5749
4015 4016
4016 5740
4017 4018
4018 5920
4019 4022
4020 4022
4021 4022
4022 4023
4022 4024
4022 4025
4022 5608
4026 4027
4027 5495
4028 4029
4028 5647
4030 5363
4031 5362
4032 5363
4033 5351
4034 4036
4035 4036
4036 5746
4037 4041
4038 4041
4039 4041
4040 4041
4041 4042
4041 4043
4041 4044
4041 4045
4041 4046
4041 5478
4047 4048
4048 4049
4048 5623
4050 4051
4050 5443
4052 4054
4053 4054
4054 5839
4055 4058
4056 4058
4057 4058
4058 4059
4058 4060
4058 4061
4058 4062
4058 4063
4058 5766
4064 4065
4065 5760
4066 4073
4067 4073
4068 4073
4069 4073
4070 4073
4071 4073
4072 4073
4073 4074
4073 4075
4073 4076
4073 4077
4073 4078
4073 5629
4079 5625
4080 5625
4081 5625
4082 5625
4083 5729
4084 5625
4085 5625
4086 5625
4087 5625
4088 5625
4089 5625
4090 5625
4091 5625
4092 5625
4093 5625
4094 5634
4095 5625
4096 5625
4097 5625
4098 4099
4099 4100
4099 4101
4099 5797
4102 4104
4103 4104
4104 5532
4105 5181
4106 5232
4107 5181
4108 5222
4109 5181
4110 5181
4111 5181
4112 5181
4113 5247
4114 5237
4115 5228
4116 5181
4117 5248
4118 5181
4119 5245
4120 5212
4121 5239
4122 5181
4123 5217
4124 5211
4125 5181
4126 5181
4127 5181
4128 5181
4129 5181
4130 5238
4131 5248
4132 5239
4133 5220
4134 5205
4135 5241
4136 5227
4137 5181
4138 5241
4139 5181
4140 5181
4141 5246
4142 5229
4143 5240
4144 5208
4145 5181
4146 5244
4147 5181
4148 5181
4149 5216
4150 5237
4151 5181
4152 5181
4153 5212
4154 5222
4155 5222
4156 5181
4157 5181
4158 5221
4159 5206
4160 5209
4161 5218
4162 5232
4163 5217
4164 5225
4165 4166
4165 5231
4167 5236
4168 5204
4169 5228
4170 5243
4171 5219
4172 5219
4173 5181
4174 5181
4175 5210
4176 5181
4177 5211
4178 5254
4179 5225
4180 5181
4181 5209
4182 5181
4183 5244
4184 5181
4185 5207
4186 5245
4187 5227
4188 5247
4189 5221
4190 5231
4191 5230
4192 5181
4193 5642
4194 4224
4195 5642
4196 5642
4197 5642
4198 5642
4199 5642
4200 5642
4201 5642
4202 5694
4203 5748
4204 5642
4205 4224
4206 5642
4207 4208
4207 5703
4209 5642
4210 4224
4211 5642
4212 5642
4213 5642
4214 5642
4215 5642
4216 5703
4217 5642
4218 5642
4219 5642
4220 5642
4221 5642
4222 5642
4223 5642
4224 4225
4224 4228
4224 4232
4224 4233
4224 4234
4224 4235
4224 4236
4224 5705
4226 5642
4227 5642
4229 5642
4230 5642
4231 5642
4237 5642
4238 5699
4239 5642
4240 5642
4241 5642
4242 5642
4243 5642
4244 4245
4244 5592
4246 5589
4247 5589
4248 4252
4249 4252
4250 4252
4251 4252
4252 4253
4252 4254
4252 5395
4255 5250
4256 5251
4257 5182
4258 5191
4259 5251
4260 5249
4261 5674
4262 5674
4263 5674
4264 5674
4265 5674
4266 5680
4267 5674
4268 5674
4269 5674
4270 5674
4271 5674
4272 5674
4273 5674
4274 5674
4275 5674
4276 5674
4277 5688
4278 5674
4279 5674
4280 5674
4281 5674
4282 5674
4283 5674
4284 5674
4285 5674
4286 5674
4287 5674
4288 5674
4289 5674
4290 5674
4291 5674
4292 5674
4293 5674
4294 5674
4295 5674
4296 5674
4297 5674
4298 5674
4299 5674
4300 5674
4301 5674
4302 5674
4303 5674
4304 5674
4305 5674
4306 5674
4307 5674
4308 5674
4309 5674
4310 5674
4311 5674
4312 5674
4313 5674
4314 4315
4314 4316
4314 5680
4317 5674
4318 5674
4319 5674
4320 4321
4320 4322
4320 4323
4320 4324
4320 5685
4325 5674
4326 5674
4327 5674
4328 5674
4329 5674
4330 5674
4331 5674
4332 5674
4333 5674
4334 5674
4335 4336
4335 4337
4335 4338
4335 4339
4335 5167
4340 4341
4341 4342
4341 5839
4343 4344
4344 5958
4345 4346
4345 5892
4347 4655
4347 5891
4347 5892
4348 4349
4349 5623
4350 4352
4351 4352
4352 5536
4353 4357
4354 4357
4355 4357
4356 4357
4357 4358
4357 5732
4359 5486
4360 5504
4361 5461
4362 5474
4363 5500
4364 5470
4365 5503
4366 5458
4367 5530
4368 5458
4369 5499
4370 5485
4371 5474
4372 5502
4373 5487
4374 5462
4375 5461
4376 5474
4377 5484
4378 5489
4379 5462
4380 5486
4381 5462
4382 5482
4383 5461
4384 5479
4385 5473
4386 5460
4387 5477
4388 5482
4389 4390
4389 5480
4391 5458
4392 5487
4393 4394
4393 4395
4393 4396
4393 4397
4393 5485
4398 5474
4399 5458
4400 5504
4401 4402
4401 4403
4401 4404
4401 5501
4404 4405
4404 4406
4404 4407
4408 4409
4408 5457
4410 4412
4411 4412
4412 5463
4413 4414
4414 5896
4415 5644
4416 5644
4417 5644
4418 5644
4419 5644
4420 5644
4421 5644
4422 5733
4423 5644
4424 5644
4425 5673
4426 5644
4427 5644
4428 5644
4429 5644
4430 5644
4431 5644
4432 5644
4433 5644
4434 5644
4435 5719
4436 5722
4437 5646
4438 5646
4439 5646
4440 5646
4441 5646
4442 5724
4443 5721
4444 5715
4445 5646
4446 5646
4447 5646
4448 5718
4449 5722
4450 5646
4451 5660
4452 5646
4453 5712
4454 5714
4455 5726
4456 5711
4457 5726
4458 5721
4459 5710
4460 5719
4461 5660
4462 5723
4463 5646
4464 5723
4465 5716
4466 5646
4467 5717
4468 5646
4469 5646
4470 5708
4471 5646
4472 4473
4474 4475
4475 5670
4476 4477
4477 5437
4478 4486
4479 4486
4480 4486
4481 4486
4482 4486
4483 4486
4484 4485
4484 4486
4486 4487
4486 4488
4486 5985
4489 4495
4490 4495
4491 4495
4492 4495
4493 4495
4494 4495
4495 4496
4495 5497
4497 4499
4498 4499
4499 4500
4499 5649
4501 5880
4502 5997
4503 4504
4503 5881
4505 5153
4505 5875
4506 5873
4507 5880
4508 5885
4509 5994
4510 6002
4511 5882
4512 5884
4513 5871
4514 6002
4515 6003
4516 5995
4517 6001
4518 5875
4519 5883
4520 5870
4521 4522
4521 5996
4523 6000
4524 5874
4525 5872
4526 5999
4527 5872
4528 5879
4529 5882
4530 4531
4530 5868
4532 5885
4533 5878
4534 5881
4535 4540
4536 4540
4537 4540
4538 4540
4539 4540
4540 4541
4540 5839
4542 4547
4543 5800
4544 4547
4545 4547
4546 5800
4547 4548
4547 4549
4547 4550
4547 5799
4547 5800
4551 4553
4552 4553
4553 6015
4554 4559
4555 4559
4556 4559
4557 4559
4558 4559
4559 4560
4559 4561
4559 5529
4562 4563
4563 5761
4564 4567
4565 4567
4566 4567
4567 4568
4567 5576
4569 4570
4570 4571
4571 5822
4572 4573
4573 6012
4574 4614
4575 4614
4576 4614
4577 4614
4578 4614
4579 4614
4580 4581
4580 4614
4582 4614
4583 4614
4584 4614
4585 4614
4586 4614
4587 4614
4588 4614
4589 4614
4590 4614
4591 4614
4592 4614
4593 4614
4594 4614
4595 4614
4596 4597
4596 4598
4596 4599
4596 5398
4600 4601
4600 4602
4600 4614
4603 4614
4604 4614
4605 4614
4606 4614
4607 4614
4608 4614
4609 4614
4610 4614
4611 4614
4612 4614
4613 5397
4614 4615
4614 4616
4614 4617
4614 4618
4614 4620
4614 4621
4614 4622
4614 4623
4614 4624
4614 4625
4614 4626
4614 4627
4614 4628
4614 4629
4614 4630
4614 4631
4614 4632
4614 4633
4614 4634
4614 4637
4614 4638
4614 4639
4614 4640
4614 5396
4614 5397
4618 4619
4635 4636
4635 5398
4640 4641
4640 4642
4643 4644
4643 5465
4645 4648
4646 4648
4647 4648
4648 5790
4649 4653
4650 4653
4651 4653
4652 4653
4653 5442
4654 4655
4656 4657
4656 5579
4658 4660
4659 4660
4660 5578
4661 4662
4662 5805
4663 5256
4664 5252
4665 5254
4666 4667
4666 4668
4666 4669
4666 4670
4666 5252
4671 5255
4672 5252
4673 5256
4674 5252
4675 4676
4676 5977
4677 4678
4678 6010
4679 5929
4680 5934
4681 5929
4682 5929
4683 5929
4684 5929
4685 5929
4686 5929
4687 5929
4688 5929
4689 4693
4690 4693
4691 4693
4692 4693
4693 4694
4693 4695
4693 4696
4693 4697
4693 5637
4698 4699
4699 5468
4700 4718
4701 4718
4702 4718
4703 4718
4704 4718
4705 4718
4706 4718
4707 4718
4708 4718
4709 4718
4710 4718
4711 4718
4712 4718
4713 4718
4714 4718
4715 4718
4716 4718
4717 4718
4718 4719
4718 4720
4718 4721
4718 4722
4718 4723
4718 4724
4718 4725
4718 4726
4718 4727
4718 4728
4718 4729
4718 4730
4718 5654
4731 4732
4732 4733
4732 5534
4734 4735
4734 5592
4736 4738
4737 4738
4738 4739
4738 5584
4740 4741
4741 4742
4742 5818
4743 4745
4744 4745
4745 4746
4745 4747
4745 4748
4745 4749
4745 5734
4750 5910
4750 5911
4751 4757
4752 5914
4753 5914
4754 4757
4755 4757
4756 4757
4757 4758
4757 5913
4757 5914
4759 5190
4760 5184
4761 5184
4762 5185
4763 5195
4764 5189
4765 5195
4766 5193
4767 5191
4768 5189
4769 5186
4770 5194
4771 5187
4772 5185
4773 5192
4774 4775
4775 5590
4776 4779
4777 4779
4778 4779
4779 4780
4779 4781
4779 5559
4782 4783
4782 4784
4782 4785
4782 4787
4782 4789
4782 4790
4782 4791
4782 4792
4782 4793
4785 4786
4787 4788
4793 5973
4794 4795
4794 4796
4794 4797
4794 4798
4794 4799
4794 5813
4800 4801
4800 4802
4800 4803
4800 4804
4800 4805
4800 4806
4800 4807
4800 4808
4800 4809
4800 4812
4800 4813
4800 4814
4800 4815
4800 4816
4800 4817
4800 5906
4809 4810
4809 4811
4818 4819
4818 5987
4819 4820
4821 4822
4821 4823
4824 4825
4825 5750
4826 4827
4826 4828
4826 4829
4826 4830
4826 4831
4826 4832
4826 4833
4826 4834
4826 4835
4826 4836
4826 4837
4826 4838
4826 4839
4826 4840
4826 4841
4826 4842
4826 4843
4826 4844
4826 4845
4826 4846
4826 4848
4826 4849
4826 4850
4826 4851
4826 4852
4826 4853
4826 4854
4826 4855
4826 4856
4826 4857
4826 4858
4826 4859
4826 4860
4826 4861
4826 4862
4826 4863
4826 4864
4826 4865
4826 4866
4826 4867
4826 4868
4826 4869
4826 4870
4826 4871
4826 4872
4826 4873
4826 4874
4826 4875
4826 4876
4826 4877
4826 4878
4826 4879
4826 4880
4826 4881
4826 4882
4826 4883
4826 4884
4826 4885
4826 4886
4826 4887
4826 4888
4826 4889
4826 4890
4826 4891
4826 4892
4826 4893
4826 4894
4826 4895
4826 4896
4826 4897
4826 4898
4826 4899
4826 4900
4826 4901
4826 4902
4826 4904
4826 4905
4826 4906
4826 4907
4826 4908
4826 4910
4826 4911
4826 4912
4826 4913
4826 4914
4826 4915
4826 4916
4826 4917
4826 5989
4847 5990
4903 5990
4909 5989
4917 5915
4918 4919
4918 5694
4920 4921
4921 5984
4922 4924
4923 4924
4924 4925
4924 5909
4926 4942
4926 5101
4926 5627
4927 4942
4928 4942
4929 4942
4930 4942
4931 4932
4931 4933
4931 4942
4934 4942
4935 4942
4936 4942
4937 4942
4938 4942
4939 4942
4940 4942
4941 4942
4942 4943
4942 4944
4942 4945
4946 4947
4946 4948
4946 4949
4946 4950
4946 4951
4946 4952
4946 4953
4946 4954
4946 4955
4946 5173
4956 4957
4956 5794
4958 5446
4959 5446
4960 5446
4961 5446
4962 5446
4963 5446
4964 5446
4965 5673
4966 5446
4967 5446
4968 5446
4969 5446
4970 5446
4971 5446
4972 5807
4973 5446
4974 5446
4975 5446
4976 5446
4977 5446
4978 5811
4979 5446
4980 5446
4981 4984
4982 4984
4983 4984
4984 5966
4985 4986
4986 4987
4986 4988
4986 4989
4986 4990
4986 4991
4991 6007
4991 6008
4992 4993
4992 5531
4994 5002
4995 5002
4996 5002
4997 5002
4998 5002
4999 5002
5000 5002
5001 5002
5002 5624
5003 5532
5004 5532
5005 5532
5006 5554
5007 5532
5008 5549
5009 5532
5010 5556
5011 5532
5012 5532
5013 5552
5014 5532
5015 5532
5016 5532
5017 5542
5018 5532
5019 5020
5019 5532
5021 5532
5022 5555
5023 5532
5024 5541
5025 5553
5026 5532
5027 5532
5028 5532
5029 5539
5030 5547
5031 5532
5032 5532
5033 5532
5034 5532
5035 5541
5036 5532
5037 5532
5038 5551
5039 5532
5040 5532
5041 5532
5042 5532
5043 5532
5044 5532
5045 5532
5046 5532
5047 5532
5048 5532
5049 5532
5050 5532
5051 5532
5052 5552
5053 5532
5054 5532
5055 5532
5056 5545
5057 5532
5058 5535
5059 5555
5060 5061
5060 5147
5062 5063
5063 5983
5064 5065
5064 5624
5066 5067
5066 5593
5068 5073
5069 5073
5070 5073
5071 5073
5072 5073
5073 5074
5073 5496
5075 5077
5076 5077
5077 5078
5077 5079
5077 5911
5079 5080
5081 5084
5082 5084
5083 5084
5084 5474
5087 5088
5087 5447
5089 5090
5090 5091
5091 5967
5092 5101
5093 5101
5094 5101
5095 5096
5095 5097
5095 5098
5095 5099
5095 5101
5100 5101
5101 5102
5103 5104
5103 5105
5103 5106
5103 5107
5103 5108
5103 5440
5109 5822
5109 5823
5109 5824
5110 5111
5110 5112
5110 5827
5113 5829
5114 5120
5115 5826
5116 5120
5117 5120
5118 5120
5119 5827
5120 5121
5120 5124
5120 5824
5120 5825
5120 5828
5122 5825
5123 5829
5125 5828
5126 5129
5127 5129
5128 5129
5129 5814
5130 5140
5131 5140
5132 5140
5133 6004
5134 5135
5134 6005
5136 5140
5137 5138
5137 6005
5139 5140
5140 5141
5140 5142
5140 5143
5140 5144
5140 5145
5140 5146
5140 5147
5140 6004
5147 5992
5148 5149
5149 5498
5150 5151
5150 5505
5154 5155
5154 5165
5154 6014
5155 5156
5155 5161
5156 5157
5156 5158
5158 5159
5159 5160
5161 5162
5162 5163
5163 5164
5166 6013
5167 5168
5167 6006
5168 5169
5168 5172
5169 5170
5170 5171
5173 5174
5173 5837
5175 5176
5176 5177
5176 5383
5177 5178
5178 5179
5178 5285
5178 5361
5179 5180
5179 5260
5180 5181
5180 5257
5181 5182
5181 5252
5182 5183
5182 5249
5183 5184
5183 5196
5184 5185
5184 5186
5186 5187
5186 5192
5187 5188
5188 5189
5188 5190
5190 5191
5192 5193
5193 5194
5194 5195
5196 5197
5196 5248
5197 5198
5197 5246
5198 5199
5198 5233
5199 5200
5199 5232
5200 5201
5200 5223
5201 5202
5201 5213
5202 5203
5202 5212
5203 5204
5203 5210
5204 5205
5205 5206
5206 5207
5207 5208
5208 5209
5210 5211
5213 5214
5213 5222
5214 5215
5214 5220
5215 5216
5215 5218
5216 5217
5218 5219
5220 5221
5223 5224
5223 5229
5224 5225
5224 5226
5226 5227
5226 5228
5229 5230
5230 5231
5233 5234
5233 5242
5234 5235
5234 5240
5235 5236
5235 5238
5236 5237
5238 5239
5240 5241
5242 5243
5242 5245
5243 5244
5246 5247
5249 5250
5250 5251
5252 5253
5253 5254
5253 5255
5255 5256
5257 5258
5260 5261
5261 5262
5261 5271
5262 5263
5262 5264
5264 5265
5264 5269
5265 5266
5266 5267
5267 5268
5269 5270
5272 5273
5272 5280
5273 5274
5273 5279
5274 5275
5275 5276
5276 5277
5277 5278
5280 5281
5282 5283
5283 5284
5285 5286
5285 5349
5286 5287
5286 5344
5287 5288
5288 5289
5289 5290
5290 5291
5290 5343
5291 5292
5291 5342
5292 5293
5292 5333
5293 5294
5294 5295
5294 5302
5295 5296
5295 5297
5297 5298
5297 5301
5298 5299
5298 5300
5302 5303
5303 5304
5303 5332
5304 5305
5304 5314
5305 5306
5306 5307
5307 5308
5307 5311
5308 5309
5309 5310
5311 5312
5312 5313
5314 5315
5315 5316
5315 5327
5316 5317
5316 5326
5317 5318
5317 5321
5318 5319
5319 5320
5321 5322
5322 5323
5322 5324
5324 5325
5327 5328
5327 5329
5329 5330
5330 5331
5333 5334
5333 5339
5334 5335
5335 5336
5336 5337
5337 5338
5339 5340
5340 5341
5344 5345
5345 5346
5346 5347
5347 5348
5349 5350
5350 5351
5351 5352
5352 5353
5352 5357
5353 5354
5353 5355
5355 5356
5358 5359
5359 5360
5361 5362
5362 5363
5364 5365
5364 5382
5365 5366
5365 5371
5366 5367
5367 5368
5368 5369
5368 5370
5371 5372
5371 5373
5371 5381
5373 5374
5374 5375
5374 5380
5375 5376
5376 5377
5377 5378
5378 5379
5386 5387
5388 5389
5388 5391
5388 5834
5389 5390
5391 5392
5393 5833
5394 5395
5394 5399
5394 5832
5395 5396
5397 5398
5399 5400
5400 5401
5400 5405
5401 5402
5402 5403
5402 5404
5405 5406
5406 5407
5406 5422
5407 5408
5407 5410
5408 5409
5410 5411
5410 5420
5411 5412
5411 5417
5412 5413
5413 5414
5414 5415
5414 5416
5417 5418
5418 5419
5420 5421
5422 5423
5422 5424
5425 5426
5425 5831
5426 5427
5427 5428
5428 5429
5428 5439
5429 5434
5430 5431
5431 5432
5432 5433
5434 5435
5434 5437
5435 5436
5437 5438
5440 5441
5440 5831
5441 5442
5441 5830
5442 5443
5443 5444
5444 5445
5444 5822
5445 5446
5445 5815
5446 5447
5446 5807
5447 5448
5447 5617
5448 5449
5448 5616
5449 5450
5449 5594
5450 5451
5450 5593
5451 5452
5451 5581
5452 5453
5452 5571
5453 5454
5453 5560
5454 5455
5455 5456
5455 5532
5456 5457
5456 5463
5456 5529
5457 5458
5457 5459
5459 5460
5459 5462
5460 5461
5463 5464
5464 5465
5464 5506
5465 5466
5466 5467
5466 5505
5467 5468
5468 5469
5469 5470
5470 5471
5471 5472
5471 5500
5472 5473
5472 5488
5473 5474
5474 5475
5474 5483
5474 5487
5475 5476
5476 5477
5476 5482
5477 5478
5478 5479
5479 5480
5480 5481
5483 5484
5483 5486
5484 5485
5488 5489
5488 5495
5489 5490
5490 5491
5491 5492
5492 5493
5492 5494
5495 5496
5496 5497
5497 5498
5498 5499
5500 5501
5501 5502
5502 5503
5503 5504
5506 5507
5506 5526
5507 5508
5507 5525
5508 5509
5508 5511
5509 5510
5511 5512
5511 5524
5512 5513
5512 5522
5513 5514
5514 5515
5515 5516
5516 5517
5517 5518
5517 5520
5518 5519
5520 5521
5522 5523
5526 5527
5527 5528
5529 5530
5530 5531
5532 5533
5533 5534
5533 5556
5534 5535
5535 5536
5535 5553
5536 5537
5537 5538
5537 5550
5538 5539
5538 5542
5539 5540
5540 5541
5542 5543
5543 5544
5543 5548
5544 5545
5545 5546
5546 5547
5548 5549
5550 5551
5551 5552
5553 5554
5554 5555
5556 5557
5557 5558
5558 5559
5560 5561
5560 5569
5561 5562
5562 5563
5563 5564
5564 5565
5564 5568
5565 5566
5566 5567
5569 5570
5571 5572
5572 5573
5573 5574
5573 5580
5574 5575
5574 5579
5575 5576
5575 5577
5577 5578
5581 5587
5582 5583
5587 5588
5588 5589
5589 5590
5590 5591
5591 5592
5594 5595
5594 5615
5595 5596
5595 5614
5596 5597
5596 5613
5597 5598
5597 5603
5598 5599
5600 5601
5601 5602
5603 5604
5603 5612
5604 5605
5605 5606
5605 5609
5606 5608
5609 5610
5610 5611
5617 5618
5617 5760
5618 5619
5619 5620
5620 5621
5621 5622
5621 5758
5622 5623
5623 5624
5624 5625
5625 5626
5625 5640
5626 5627
5626 5630
5627 5628
5628 5629
5630 5631
5631 5632
5632 5633
5632 5637
5633 5634
5633 5635
5635 5636
5637 5638
5640 5641
5640 5751
5641 5642
5641 5749
5642 5643
5642 5745
5643 5644
5643 5736
5644 5645
5644 5730
5645 5646
5645 5727
5646 5647
5646 5689
5647 5648
5648 5649
5648 5650
5650 5651
5650 5671
5651 5652
5652 5653
5652 5655
5653 5654
5655 5656
5656 5657
5656 5668
5657 5658
5657 5661
5658 5659
5659 5660
5661 5662
5662 5663
5662 5667
5663 5664
5664 5665
5665 5666
5668 5669
5668 5670
5671 5672
5671 5674
5672 5673
5674 5675
5674 5679
5674 5686
5675 5676
5675 5677
5677 5678
5679 5680
5679 5681
5681 5682
5681 5684
5682 5683
5684 5685
5686 5687
5686 5688
5689 5690
5689 5697
5690 5691
5690 5692
5692 5693
5692 5696
5693 5694
5693 5695
5697 5698
5697 5724
5698 5699
5698 5708
5699 5700
5700 5701
5700 5706
5701 5702
5701 5705
5702 5703
5702 5704
5706 5707
5708 5709
5709 5710
5709 5723
5710 5711
5711 5712
5712 5713
5713 5714
5713 5720
5714 5715
5715 5716
5716 5717
5717 5718
5718 5719
5720 5721
5720 5722
5724 5725
5725 5726
5727 5728
5728 5729
5730 5731
5730 5735
5731 5732
5731 5733
5733 5734
5736 5737
5737 5738
5738 5739
5738 5742
5739 5740
5739 5741
5742 5743
5743 5744
5745 5746
5745 5747
5747 5748
5749 5750
5751 5752
5753 5754
5754 5755
5756 5757
5758 5759
5760 5761
5761 5762
5761 5796
5762 5763
5762 5795
5763 5764
5763 5791
5764 5765
5764 5771
5765 5766
5765 5767
5767 5768
5767 5770
5768 5769
5771 5772
5771 5790
5772 5775
5773 5774
5775 5776
5775 5788
5776 5777
5777 5778
5777 5787
5778 5779
5778 5785
5779 5780
5779 5784
5780 5781
5781 5782
5782 5783
5785 5786
5788 5789
5791 5792
5792 5793
5792 5794
5796 5801
5797 5798
5798 5799
5801 5802
5801 5805
5802 5803
5803 5804
5805 5806
5807 5808
5807 5810
5808 5809
5810 5811
5811 5812
5812 5813
5813 5814
5815 5816
5816 5817
5817 5818
5818 5819
5819 5820
5825 5826
5826 5827
5828 5829
5831 5832
5832 5833
5833 5834
5834 5835
5835 5836
5836 5837
5837 5838
5838 5839
5838 6006
5839 5840
5839 5991
5840 5841
5840 5915
5841 5842
5841 5910
5842 5843
5842 5886
5842 5907
5843 5844
5843 5883
5844 5845
5844 5876
5845 5846
5845 5868
5846 5847
5846 5859
5847 5848
5847 5858
5848 5849
5849 5850
5850 5851
5851 5852
5851 5857
5852 5853
5852 5856
5853 5854
5853 5855
5859 5860
5860 5861
5861 5862
5862 5863
5863 5864
5864 5865
5865 5866
5866 5867
5868 5869
5869 5870
5869 5873
5870 5871
5871 5872
5873 5874
5874 5875
5876 5877
5876 5882
5877 5878
5877 5881
5878 5879
5879 5880
5883 5884
5884 5885
5886 5887
5887 5888
5887 5903
5888 5889
5889 5890
5889 5902
5890 5891
5891 5896
5892 5893
5893 5894
5897 5898
5897 5901
5898 5899
5899 5900
5903 5904
5903 5905
5905 5906
5907 5908
5908 5909
5911 5912
5912 5913
5915 5916
5916 5917
5916 5988
5917 5918
5917 5960
5918 5919
5918 5956
5919 5920
5919 5954
5920 5921
5921 5922
5922 5923
5922 5951
5923 5924
5924 5925
5924 5949
5925 5926
5925 5945
5926 5927
5927 5928
5927 5929
5929 5930
5929 5935
5930 5931
5930 5933
5933 5934
5935 5936
5936 5937
5937 5938
5938 5939
5939 5940
5939 5944
5940 5941
5941 5942
5941 5943
5945 5946
5945 5947
5947 5948
5952 5953
5956 5957
5957 5958
5960 5961
5960 5965
5961 5962
5962 5963
5962 5964
5965 5967
5967 5968
5968 5969
5968 5983
5969 5970
5969 5982
5970 5971
5970 5973
5973 5974
5974 5975
5975 5976
5975 5978
5976 5977
5978 5979
5979 5980
5980 5981
5983 5984
5984 5985
5985 5986
5986 5987
5989 5990
5991 5992
5992 5993
5993 5994
5993 5995
5995 5996
5996 5997
5997 5998
5998 5999
5998 6003
5999 6000
6000 6001
6001 6002
6004 6005
6006 6007
6007 6011
6008 6009
6009 6010
6011 6012
6012 6013
6013 6014
6014 6015
6015 6016
