# Primates clade from the Open Tree of Life; 1333 nodes, 1332 edges; canonical sorted order
0 324
0 810
1 2
1 940
3 838
4 5
5 1153
6 7
6 1030
8 1151
9 13
9 1150
9 1151
10 11
11 12
11 1151
14 23
15 16
16 1301
17 1302
18 23
19 20
20 1301
21 23
22 23
23 34
23 35
23 36
23 37
23 1300
23 1305
24 27
25 27
26 27
27 28
27 29
27 1305
30 1305
31 1304
32 1304
33 1303
37 88
38 39
38 1240
39 40
39 41
39 42
39 43
39 44
39 45
39 50
39 51
39 53
39 55
39 58
39 59
39 62
39 1273
39 1276
46 49
47 49
48 49
49 1274
52 1278
54 1278
56 1273
57 1274
60 1277
61 1276
63 65
64 65
65 1069
66 68
67 68
68 1093
69 90
69 1204
70 72
71 72
72 1299
73 74
73 75
73 1295
76 79
77 79
78 79
79 80
79 81
79 82
79 1296
83 84
84 1296
85 1299
86 89
86 1295
86 1298
87 1298
88 89
88 1238
89 1292
91 1061
92 1058
93 1059
94 1060
95 97
96 1057
97 99
97 1056
97 1057
97 1059
98 1061
100 1058
101 103
102 103
103 1292
104 105
104 147
106 1308
107 109
108 109
109 110
109 111
109 114
112 1308
113 1307
114 115
114 1306
114 1307
116 137
116 1267
117 277
117 742
117 1312
118 127
119 127
120 127
121 1318
122 127
123 127
124 127
125 127
126 127
127 1312
127 1317
128 1317
129 1318
130 131
131 1260
132 143
133 143
134 143
135 1263
136 1262
138 1265
139 1264
140 1262
141 1265
142 152
143 1262
143 1263
144 887
144 1240
144 1259
145 146
145 1322
147 940
147 946
147 1006
147 1215
147 1232
148 149
149 810
150 169
150 920
150 1280
151 152
152 1267
153 169
154 169
155 1285
156 169
157 158
158 169
159 169
160 169
161 169
162 169
163 1286
164 169
165 169
166 168
167 168
168 1286
169 170
169 172
169 173
169 1284
171 1285
174 176
175 176
176 177
177 1322
178 1160
179 181
180 181
181 1158
182 1159
183 1161
184 1157
184 1158
184 1159
185 1161
186 187
186 1158
188 190
188 818
188 1311
189 1123
189 1155
189 1311
190 1236
191 1124
192 199
193 199
194 199
195 199
196 199
197 199
198 199
199 1135
200 202
201 202
202 203
202 204
202 1130
205 1124
206 207
207 1146
208 211
209 211
210 211
211 1132
212 1143
213 1139
214 1136
215 1138
216 217
217 218
217 1131
219 221
220 221
221 1133
222 1124
223 224
224 1125
225 1124
226 1136
227 1124
228 1124
229 1146
230 1124
231 1124
232 236
233 236
234 236
235 236
236 237
236 1136
238 240
239 240
240 1141
241 1140
242 1124
243 245
244 245
245 1134
246 1124
247 1124
248 249
249 250
249 1129
251 253
252 253
253 254
253 255
253 1142
256 1139
257 1133
258 259
259 260
259 261
259 1143
262 700
262 1029
262 1327
263 269
264 1052
265 1052
266 1053
267 1053
268 269
269 270
269 271
269 272
269 273
269 1029
269 1051
274 277
275 277
276 277
277 278
277 279
277 280
281 319
281 1323
282 286
283 284
283 1309
285 1309
286 287
286 288
286 1306
286 1309
289 297
290 297
291 297
292 293
293 294
293 1149
295 297
296 297
297 1145
297 1147
298 299
299 300
299 1148
301 1147
302 303
303 1149
304 1008
304 1083
304 1107
305 314
305 1107
305 1109
306 307
306 1109
308 312
309 312
310 312
311 312
312 1110
313 1111
314 315
316 1111
317 318
318 319
320 321
321 322
321 1002
323 324
325 326
325 1122
327 330
328 381
329 943
330 1212
331 635
332 333
333 334
333 335
333 1150
336 1078
337 1076
338 1079
339 1080
340 347
341 1076
342 1079
343 347
344 345
345 1080
346 1073
347 348
347 351
347 1071
347 1072
349 1078
350 1075
352 353
353 354
353 1094
355 687
355 1004
355 1088
355 1094
356 923
357 1097
358 1097
359 1097
360 923
361 1105
362 1102
363 1103
364 1097
365 1104
366 367
367 368
367 1105
369 1102
370 371
371 1096
372 1095
373 1095
374 1095
375 1095
376 1095
377 1095
378 379
378 380
378 1102
381 1216
382 384
383 384
384 389
385 387
386 387
387 388
387 389
389 406
390 391
391 1201
392 942
392 1230
393 394
393 1069
395 1085
396 404
397 402
398 402
399 402
400 402
401 402
402 1085
403 1084
404 1082
404 1084
405 838
405 940
405 952
405 1007
406 1201
406 1202
407 1209
408 1208
409 1207
410 1210
411 412
411 1206
411 1207
413 414
414 415
414 1210
416 418
417 418
418 419
418 437
420 421
421 422
421 1223
423 435
424 1224
425 428
426 428
427 428
428 429
428 1220
430 1224
431 434
432 434
433 434
434 1223
435 436
435 1219
435 1220
437 1196
437 1218
438 439
439 1054
440 1054
440 1069
440 1325
441 606
441 1198
442 443
442 1230
444 445
444 1234
446 1293
447 450
448 1294
449 450
450 452
450 1292
450 1293
451 1294
453 455
454 455
455 1081
456 1071
456 1086
456 1324
457 558
457 1323
457 1324
458 1272
459 461
460 1271
461 1259
461 1271
462 1272
463 1025
464 1021
465 1022
466 1332
467 1018
468 1014
469 1330
470 483
471 483
472 483
473 483
474 1027
475 1332
476 1028
477 1014
478 1012
479 1023
480 483
481 1019
482 1331
483 488
483 490
483 495
483 496
483 1010
483 1328
484 1013
485 1028
486 1026
487 1027
489 1021
491 1328
492 1016
493 1023
494 1329
496 1327
497 498
498 500
499 500
500 1163
501 506
502 504
503 504
504 506
505 506
506 508
506 1089
507 508
508 509
510 840
510 1088
510 1089
510 1093
511 891
511 944
511 1088
512 513
513 1213
514 1182
515 516
516 1186
517 541
518 1175
519 1191
520 522
521 522
522 523
522 1190
524 525
525 526
525 1193
527 1171
528 1180
529 1188
530 1174
531 533
532 533
533 534
533 1193
535 1187
536 537
537 1177
538 1173
539 1172
540 1175
541 543
541 549
541 550
541 1155
541 1168
542 1179
544 545
544 1188
546 1180
547 1177
548 1185
551 552
551 1186
553 1173
554 555
555 556
555 1157
557 558
559 560
559 929
559 1122
561 1261
562 563
563 1268
564 1261
565 1261
566 1269
567 1270
568 1261
569 1261
570 1261
571 1270
572 1261
573 1261
574 1261
575 1261
576 1261
577 1261
578 1039
579 1042
580 1049
581 597
582 1048
583 597
584 1046
585 1050
586 1045
587 1041
588 597
589 1047
590 1038
591 597
592 1038
593 1046
594 1040
595 1050
596 1042
597 1031
597 1032
597 1050
598 1049
599 1036
600 1039
601 1044
602 1035
603 1033
604 605
605 1215
607 608
608 609
608 1153
609 610
611 612
612 613
612 614
612 1031
615 616
616 1197
617 618
618 1137
619 630
620 630
621 625
622 625
623 625
624 625
625 1225
626 1226
627 1228
628 1227
629 1228
630 1218
630 1225
630 1228
631 1227
632 633
632 810
633 634
635 693
636 645
637 1092
638 645
639 641
640 641
641 1092
642 1091
643 645
644 1090
645 646
645 1089
645 1090
647 648
647 649
647 1007
650 778
651 1101
652 653
653 1101
654 656
655 656
656 657
657 1099
657 1101
658 659
659 1086
660 662
661 662
662 663
663 1055
664 665
664 667
664 1202
666 667
667 668
667 669
667 670
667 671
672 673
673 1166
674 676
675 676
676 1167
677 678
678 1165
679 681
680 681
681 682
681 1164
681 1165
683 684
684 685
684 1167
686 687
687 688
689 1211
690 1211
691 692
691 1205
691 1211
693 1229
694 697
694 1093
695 697
696 697
698 700
699 700
700 701
700 702
703 704
704 1212
705 706
706 707
706 714
708 714
709 714
710 1118
711 1121
712 1121
713 714
714 715
714 716
714 720
714 723
714 1113
714 1114
717 1116
718 1116
719 1119
721 1119
722 1115
724 736
725 736
726 736
727 736
728 736
729 736
730 1310
731 736
732 736
733 736
734 1310
735 736
736 737
736 738
736 740
736 741
736 743
736 1310
738 739
742 743
742 747
743 1306
744 770
745 746
746 1233
747 940
747 1238
748 764
749 764
750 764
751 1314
752 1316
753 764
754 1313
755 756
756 1316
757 764
758 1315
759 764
760 764
761 1315
762 764
763 764
764 765
764 766
764 767
764 768
764 769
764 1312
764 1313
764 1316
770 771
770 1234
772 774
772 1214
773 774
774 775
774 777
775 776
778 1206
779 797
780 797
781 1077
782 784
783 784
784 1043
785 786
786 1087
787 1077
788 789
789 1070
790 797
791 1020
792 1009
793 1043
794 1015
795 1100
796 797
797 798
797 802
797 805
797 806
797 809
797 1068
797 1083
797 1100
797 1326
799 800
799 801
799 1326
803 804
803 1020
807 1100
808 1087
810 1007
811 812
811 1113
813 816
814 1231
815 1231
816 817
816 1231
817 1229
818 819
820 821
820 1082
822 1064
823 1063
824 826
825 826
826 1065
827 829
828 829
829 1067
830 1067
831 1056
831 1062
831 1066
832 1066
833 1063
834 835
834 1065
836 838
837 838
839 840
841 847
842 847
843 1120
844 845
845 1120
846 847
847 1112
847 1120
848 853
849 853
850 1154
851 1152
852 853
853 855
853 1108
853 1152
854 1154
856 857
857 1164
858 859
859 1246
860 887
861 1255
862 866
863 866
864 1255
865 1254
866 867
866 1253
866 1254
868 1247
869 1258
870 871
870 1249
872 1251
873 874
874 1250
875 1248
876 1246
877 878
878 1257
879 880
880 1244
881 882
882 1251
883 1244
884 885
885 1258
886 1247
887 889
887 1241
887 1253
888 1256
890 891
892 893
892 1203
894 895
895 896
895 902
897 902
898 902
899 901
900 901
901 1283
902 910
902 911
902 1281
903 907
904 907
905 907
906 907
907 908
907 1283
909 1281
911 1280
912 914
913 914
914 1290
915 1290
916 1289
917 1288
918 919
918 1291
920 1288
920 1291
921 1291
922 923
923 1099
924 932
925 926
926 1297
927 1297
928 932
930 932
931 932
932 933
932 934
932 935
932 936
932 937
932 1287
932 1297
938 939
939 1137
941 967
943 1216
944 1007
944 1323
945 946
946 947
948 949
948 1219
949 950
951 952
951 956
951 1322
953 956
954 956
955 1320
956 957
956 958
956 960
956 961
956 963
956 964
956 1319
959 1320
962 1321
965 1321
966 967
967 1162
968 970
969 970
970 971
970 1217
972 1194
973 1221
974 1245
975 1235
976 977
977 1252
978 1282
979 1221
980 1237
981 1287
982 1235
983 1178
984 1194
985 987
986 987
987 988
987 989
987 1192
990 1282
991 992
992 993
992 1252
994 1178
995 1282
996 997
996 1275
998 999
998 1000
998 1086
1000 1001
1002 1233
1003 1004
1005 1006
1008 1122
1008 1311
1009 1015
1009 1043
1009 1326
1010 1011
1010 1024
1011 1012
1011 1016
1012 1013
1013 1014
1015 1020
1016 1017
1017 1018
1017 1022
1018 1019
1019 1021
1022 1023
1024 1025
1024 1028
1025 1026
1026 1027
1029 1030
1030 1031
1032 1033
1032 1047
1033 1034
1034 1035
1034 1044
1035 1036
1035 1040
1036 1037
1037 1038
1037 1039
1040 1041
1041 1042
1044 1045
1045 1046
1047 1048
1048 1049
1051 1052
1051 1053
1054 1055
1055 1056
1057 1058
1059 1060
1060 1061
1062 1063
1062 1064
1064 1065
1066 1067
1068 1070
1068 1087
1070 1077
1071 1081
1072 1073
1072 1079
1073 1074
1074 1075
1074 1078
1075 1076
1079 1080
1081 1082
1083 1106
1084 1085
1090 1091
1091 1092
1094 1095
1095 1096
1096 1097
1097 1098
1097 1103
1098 1099
1098 1102
1103 1104
1104 1105
1106 1108
1106 1178
1107 1113
1108 1112
1109 1110
1110 1111
1112 1137
1114 1115
1114 1117
1115 1116
1117 1118
1117 1121
1118 1119
1123 1124
1123 1153
1124 1125
1124 1144
1125 1126
1126 1127
1126 1140
1127 1128
1127 1138
1128 1129
1128 1134
1129 1130
1130 1131
1131 1132
1132 1133
1134 1135
1135 1136
1138 1139
1140 1141
1141 1142
1142 1143
1144 1145
1144 1150
1145 1146
1147 1148
1148 1149
1152 1154
1155 1156
1156 1157
1156 1162
1159 1160
1160 1161
1162 1163
1163 1164
1165 1166
1166 1167
1168 1169
1168 1181
1169 1170
1169 1176
1170 1171
1170 1174
1171 1172
1172 1173
1174 1175
1176 1177
1176 1179
1178 1184
1178 1275
1179 1180
1181 1182
1181 1190
1182 1183
1183 1185
1183 1187
1184 1189
1184 1235
1185 1186
1187 1188
1189 1192
1189 1217
1190 1191
1191 1193
1192 1194
1195 1196
1195 1229
1195 1236
1196 1197
1197 1198
1198 1199
1199 1200
1199 1213
1200 1201
1200 1212
1202 1203
1203 1204
1204 1205
1205 1206
1207 1208
1208 1209
1209 1210
1213 1214
1214 1216
1215 1236
1217 1221
1218 1219
1220 1222
1222 1223
1222 1224
1225 1226
1226 1227
1229 1230
1232 1233
1232 1234
1235 1237
1237 1245
1238 1239
1239 1240
1239 1280
1241 1242
1241 1248
1242 1243
1242 1247
1243 1244
1243 1246
1245 1252
1248 1249
1249 1250
1250 1251
1253 1256
1254 1255
1256 1257
1257 1258
1259 1260
1260 1261
1261 1262
1262 1266
1263 1264
1264 1265
1266 1267
1266 1268
1268 1269
1269 1270
1271 1272
1273 1274
1275 1279
1276 1277
1277 1278
1279 1282
1279 1287
1281 1283
1284 1285
1284 1286
1288 1289
1289 1290
1293 1294
1295 1296
1298 1299
1300 1301
1300 1302
1302 1303
1303 1304
1307 1308
1313 1314
1314 1315
1317 1318
1319 1320
1319 1321
1324 1325
1325 1327
1328 1329
1329 1330
1330 1331
1331 1332
