# Psittaciformes clade from the Open Tree of Life; 1251 nodes, 1250 edges; canonical sorted order
0 4
1 1009
2 1008
3 1008
4 10
4 1003
4 1004
5 1009
6 1010
7 1006
8 1004
9 1010
11 12
11 1240
13 17
14 17
15 17
16 17
17 1097
18 19
19 1097
20 21
20 1095
20 1097
22 23
23 24
23 1198
25 1224
26 1229
27 28
28 1228
28 1229
29 1229
30 1222
31 1206
32 34
33 34
34 35
34 1202
36 38
37 38
38 39
38 1217
40 41
41 1205
42 1220
43 1225
44 1217
45 1208
46 50
47 1211
48 1212
49 1211
50 1210
50 1211
50 1212
51 1212
52 54
53 54
54 1196
55 1218
56 78
57 1222
58 1219
59 1209
60 64
61 64
62 64
63 64
64 65
64 1226
66 78
67 1210
68 1200
69 1200
70 1200
71 1201
72 1203
73 1200
74 1204
75 77
76 1204
77 1203
77 1204
78 85
78 1193
78 1194
78 1223
79 1214
80 1208
81 1214
82 1227
83 1206
84 1213
86 1218
87 1227
88 1228
89 90
90 660
91 1186
92 94
93 1186
94 1143
94 1186
95 99
96 99
97 98
97 99
99 100
99 1099
101 1180
102 1176
103 112
104 1178
105 1176
106 107
107 1178
108 111
109 111
110 111
111 1180
112 114
112 115
112 1171
112 1174
113 1175
116 120
117 120
118 120
119 120
120 660
121 135
122 1183
123 135
124 135
125 135
126 135
127 135
128 135
129 135
130 135
131 1184
132 1183
133 1182
134 135
135 137
135 138
135 139
135 1181
135 1182
136 1184
140 141
140 660
142 143
143 145
144 145
145 146
145 1033
146 147
146 148
149 151
150 151
151 1002
152 925
153 926
154 928
155 926
156 910
157 906
158 906
159 907
160 163
160 908
160 1249
160 1250
161 907
162 909
164 908
165 910
166 180
167 951
168 180
169 180
170 957
171 173
172 173
173 174
173 954
175 956
176 955
177 180
178 953
179 952
180 949
180 950
181 182
182 958
183 959
184 185
184 954
186 959
187 188
188 948
189 191
190 191
191 192
191 963
193 962
194 961
195 963
196 962
197 945
197 961
197 963
198 201
199 201
200 201
201 944
202 922
203 204
204 205
204 943
206 920
207 208
208 209
208 210
208 944
211 984
212 980
213 215
214 215
215 216
215 992
217 975
218 980
219 982
220 991
221 983
222 223
223 224
223 225
223 226
223 992
227 229
228 229
229 230
229 231
229 232
229 996
233 234
233 235
233 994
236 981
237 238
237 996
239 994
240 975
241 246
242 246
243 246
244 246
245 246
246 247
246 248
246 660
249 250
250 1181
251 1106
252 254
253 254
254 255
254 1106
256 257
256 259
256 1105
256 1106
258 259
260 264
260 1187
261 264
262 264
263 264
264 265
266 267
266 1169
268 1051
269 1053
270 277
271 1053
272 1050
273 1048
274 276
275 276
276 1051
277 278
277 279
277 280
277 282
277 1046
277 1047
281 1050
283 999
284 1001
285 998
286 287
287 1188
288 290
289 290
290 291
291 1162
292 294
293 294
294 295
294 296
294 299
294 1061
297 299
298 299
299 300
299 301
299 302
299 303
304 306
305 306
306 1187
307 308
307 949
309 311
310 311
311 1054
312 319
313 1030
314 319
315 316
316 317
316 1038
318 319
319 320
319 987
319 1026
321 1054
322 323
323 324
323 1038
325 326
326 327
326 1046
328 335
329 1166
330 1164
331 333
332 333
333 1167
334 1167
335 1145
335 1164
335 1166
336 337
337 338
337 1164
339 916
340 343
341 343
342 343
343 915
344 912
345 347
346 347
347 348
347 911
349 350
350 351
350 352
352 911
352 1110
353 918
354 356
355 919
356 358
356 917
356 918
357 919
359 916
360 917
361 913
362 366
363 366
364 1083
365 366
366 367
366 369
366 370
366 1062
366 1083
368 1083
371 373
372 373
373 1082
374 966
375 966
376 377
377 1240
378 379
379 1162
380 381
381 660
382 383
382 384
382 1247
385 1248
386 387
386 388
388 1241
388 1247
389 1248
390 391
391 1044
392 393
393 1160
394 396
395 396
396 1021
397 1019
398 409
399 1020
400 1014
401 409
402 409
403 1017
404 409
405 1014
406 409
407 1015
408 409
409 412
409 413
409 415
409 419
409 1003
409 1011
409 1016
410 1011
411 1012
414 1018
416 1019
417 1020
418 1015
420 969
421 441
422 969
423 972
424 441
425 428
426 428
427 428
428 972
429 431
430 431
431 432
431 970
433 437
434 437
435 437
436 437
437 438
437 439
437 440
437 970
441 442
441 443
441 444
441 967
441 968
441 972
445 446
446 1073
447 448
447 1221
449 455
450 451
450 1102
452 1103
453 1102
454 1104
455 1058
455 1101
456 1104
457 459
458 459
459 1249
460 928
461 927
462 1001
463 1001
464 1027
465 1028
466 1029
467 1024
467 1025
467 1027
468 469
468 1029
470 1025
471 1025
472 473
473 1024
474 478
475 477
476 477
477 478
478 480
478 482
478 960
479 480
480 481
483 487
484 487
485 487
486 487
487 488
487 964
489 491
490 491
491 1040
492 493
493 946
494 495
495 1160
496 499
497 499
498 499
499 502
500 502
501 502
502 905
503 504
504 1170
505 506
506 508
506 1023
507 508
509 510
509 985
511 513
512 513
513 1188
514 515
514 1190
516 517
517 1237
518 529
519 529
520 1236
521 1233
522 523
523 1232
523 1233
524 1233
525 1239
526 528
526 1238
526 1239
527 1239
529 530
529 1230
529 1231
529 1238
531 1237
532 535
533 1234
534 1234
535 1232
535 1234
535 1235
536 1235
537 1235
538 539
538 1238
540 554
541 1036
542 554
543 1037
544 554
545 1037
546 554
547 1035
548 554
549 554
550 551
550 1034
552 554
553 554
554 555
554 556
554 557
554 558
554 560
554 561
554 1033
554 1034
554 1037
559 1036
562 574
563 574
564 938
565 574
566 939
567 569
568 569
569 941
570 574
571 572
572 573
572 940
574 575
574 585
574 586
574 935
574 936
574 941
576 577
577 578
577 579
577 941
580 940
581 936
582 583
582 584
582 937
587 1099
588 589
588 1100
590 1100
591 1172
592 594
593 1172
594 1171
594 1172
595 604
596 597
597 598
597 1090
599 1088
600 1090
601 1086
602 1094
603 1093
604 1060
604 1086
604 1087
605 1094
606 607
606 608
606 1086
609 1089
610 1093
611 612
612 613
613 947
614 615
614 1045
614 1055
616 1055
617 618
617 1055
619 1043
620 1042
621 623
621 1041
621 1042
622 1043
624 626
625 626
626 1039
627 628
628 629
629 922
630 631
630 632
632 924
633 635
634 635
635 1161
636 1154
637 1157
638 1151
639 1157
640 1150
641 1147
642 1153
643 1147
644 1151
645 1147
646 647
647 1148
648 1155
649 1155
650 1147
651 652
651 660
653 1056
654 657
655 1057
656 1057
657 658
657 1056
657 1057
657 1081
659 1056
660 820
660 904
660 964
661 663
662 663
663 1070
664 1064
665 1064
666 1077
667 1069
668 1064
669 1077
670 1064
671 673
672 673
673 1079
674 1064
675 1070
676 1064
677 1076
678 681
679 681
680 681
681 682
681 1074
683 1075
684 1080
685 1064
686 1080
687 690
688 690
689 690
690 691
690 1076
692 693
693 694
693 1069
695 1064
696 1064
697 1078
698 1074
699 703
700 701
701 703
702 1000
703 999
703 1000
704 1000
705 738
706 738
707 738
708 738
709 738
710 738
711 738
712 738
713 738
714 738
715 738
716 738
717 738
718 738
719 720
720 738
721 738
722 738
723 738
724 738
725 738
726 738
727 738
728 738
729 738
730 738
731 738
732 738
733 738
734 738
735 738
736 738
737 738
738 739
738 740
738 741
738 742
738 743
738 744
738 745
738 746
738 747
738 748
738 749
738 935
750 974
751 752
752 753
752 995
754 971
755 965
756 758
757 758
758 1063
759 760
760 1105
761 762
761 1041
763 1245
764 1244
765 1243
766 1246
767 1241
767 1242
767 1246
768 1246
769 1242
770 1245
771 1126
772 774
773 774
774 1137
775 800
776 777
776 1135
778 1122
779 1141
780 1117
781 782
782 783
782 800
784 1127
785 1136
786 1134
787 1117
788 1140
789 1125
790 791
791 1123
792 1128
793 1140
794 796
795 796
796 1138
797 1127
798 1118
799 1120
800 801
800 807
800 1114
800 1115
800 1129
802 1128
803 1139
804 1132
805 1133
806 1124
808 809
809 1139
810 811
810 1119
812 1141
813 1136
814 1125
815 816
815 817
815 1113
818 820
819 820
820 821
822 824
823 824
824 964
825 834
826 834
827 834
828 834
829 834
830 1068
831 1068
832 834
833 834
834 835
834 836
834 837
834 838
834 1067
834 1068
839 933
840 934
841 934
842 845
843 930
844 933
845 847
845 896
845 921
845 929
846 932
848 932
849 977
850 977
851 853
852 853
853 1173
854 1085
855 977
856 977
857 1165
858 977
859 861
860 861
861 997
862 864
863 864
864 865
864 1179
866 1096
867 977
868 879
869 879
870 879
871 879
872 879
873 879
874 879
875 879
876 879
877 879
878 879
879 880
879 1096
881 977
882 990
883 977
884 977
885 977
886 977
887 1159
888 977
889 997
890 1096
891 1084
892 1163
893 1179
894 895
895 1191
897 900
898 900
899 989
900 985
900 986
901 989
902 988
903 986
904 945
904 993
905 942
905 1221
906 1250
907 1250
908 909
909 910
911 912
912 913
913 914
914 915
914 917
915 916
918 919
920 922
920 943
920 973
921 923
921 1109
923 924
923 927
924 925
925 926
927 928
929 930
929 934
930 931
931 932
931 933
935 1108
936 937
937 938
938 939
939 940
942 960
942 975
943 944
945 946
946 947
947 948
948 949
950 951
950 955
951 952
952 953
953 954
955 956
956 957
957 958
958 959
960 967
961 962
965 966
965 971
967 971
968 969
968 970
971 973
973 974
974 977
975 976
976 978
976 996
977 987
977 1082
978 979
978 994
979 980
979 991
980 981
981 982
982 983
983 984
984 985
986 988
987 990
988 989
990 995
991 992
993 1021
993 1108
995 997
998 999
998 1001
998 1185
1002 1003
1002 1156
1004 1005
1005 1006
1005 1010
1006 1007
1007 1008
1007 1009
1011 1012
1012 1013
1013 1014
1013 1015
1016 1017
1016 1020
1017 1018
1018 1019
1021 1052
1021 1105
1022 1023
1022 1031
1022 1107
1023 1024
1026 1030
1026 1054
1027 1028
1028 1029
1030 1038
1031 1032
1031 1044
1032 1033
1032 1039
1034 1035
1035 1036
1039 1040
1040 1041
1042 1043
1044 1045
1045 1046
1047 1048
1047 1053
1048 1049
1049 1050
1049 1051
1052 1058
1052 1081
1058 1059
1059 1060
1059 1095
1060 1061
1061 1062
1062 1063
1063 1064
1064 1065
1064 1078
1065 1066
1065 1071
1066 1067
1066 1070
1067 1069
1071 1072
1071 1077
1072 1073
1072 1075
1073 1074
1075 1076
1078 1079
1079 1080
1081 1107
1082 1084
1084 1085
1085 1091
1087 1088
1087 1092
1088 1089
1089 1090
1091 1096
1091 1159
1092 1093
1092 1094
1095 1098
1098 1099
1098 1100
1101 1102
1101 1103
1103 1104
1107 1156
1108 1109
1109 1110
1110 1111
1111 1112
1111 1189
1112 1113
1112 1188
1113 1114
1114 1142
1115 1116
1115 1128
1116 1117
1116 1118
1118 1119
1119 1120
1120 1121
1121 1122
1121 1126
1122 1123
1123 1124
1124 1125
1126 1127
1129 1130
1129 1141
1130 1131
1130 1140
1131 1132
1131 1137
1132 1133
1133 1134
1134 1135
1135 1136
1137 1138
1138 1139
1142 1143
1142 1187
1143 1144
1144 1145
1144 1168
1145 1146
1146 1147
1146 1158
1147 1148
1148 1149
1149 1150
1149 1152
1150 1151
1152 1153
1152 1157
1153 1154
1154 1155
1156 1185
1158 1160
1158 1161
1159 1163
1161 1162
1163 1165
1165 1173
1166 1167
1168 1169
1168 1181
1169 1170
1170 1171
1173 1179
1174 1175
1174 1177
1175 1176
1177 1178
1177 1180
1182 1183
1183 1184
1185 1221
1189 1190
1189 1249
1190 1191
1191 1192
1192 1193
1192 1241
1193 1230
1194 1195
1194 1215
1195 1196
1195 1213
1196 1197
1197 1198
1197 1207
1198 1199
1199 1200
1199 1205
1200 1201
1201 1202
1202 1203
1205 1206
1207 1208
1207 1209
1209 1210
1213 1214
1215 1216
1215 1219
1216 1217
1216 1218
1219 1220
1220 1222
1223 1224
1223 1228
1224 1225
1225 1226
1226 1227
1230 1240
1231 1232
1231 1236
1236 1237
1242 1243
1243 1244
1244 1245
1247 1248
