# Rodentia clade from the Open Tree of Life; 5325 nodes, 5324 edges; canonical sorted order
0 1
1 5303
2 3
2 5281
3 4
5 6
6 7
6 4329
8 9
9 14
10 14
11 14
12 14
13 14
14 15
14 16
14 17
14 18
18 854
18 4895
19 20
19 37
21 4426
22 37
23 24
24 4425
25 37
26 28
27 28
28 37
29 37
30 4427
31 35
32 35
33 35
34 35
35 36
35 4427
37 38
37 39
37 40
37 4419
37 4425
40 41
42 104
43 104
44 104
45 4321
46 104
47 104
48 104
49 104
50 104
51 104
52 104
53 104
54 104
55 104
56 104
57 104
58 104
59 104
60 104
61 104
62 104
63 104
64 104
65 104
66 104
67 104
68 104
69 104
70 104
71 104
72 104
73 104
74 104
75 104
76 104
77 104
78 104
79 104
80 104
81 104
82 104
83 104
84 104
85 104
86 104
87 104
88 104
89 104
90 104
91 4318
92 4320
93 104
94 4317
95 4315
96 4316
97 104
98 104
99 4320
100 104
101 104
102 4321
103 104
104 105
104 108
104 109
104 110
104 111
104 112
104 4297
104 4314
106 107
106 4322
113 4322
114 4941
115 4939
116 4941
117 118
118 119
118 4395
120 121
121 122
121 4479
123 124
124 5185
125 126
125 127
125 5187
128 135
129 135
130 5232
131 135
132 5232
133 135
134 135
135 136
135 137
135 138
135 5231
135 5232
139 4524
140 4494
141 4524
142 4528
143 4494
144 145
145 4510
146 4520
147 4502
148 4527
149 4494
150 4508
151 4516
152 4518
153 4507
154 182
155 156
156 4515
157 4494
158 4506
159 4507
160 4494
161 4494
162 4513
163 164
164 165
164 4504
166 4495
167 4518
168 169
169 4522
170 4511
171 4513
172 4494
173 4525
174 4512
175 4494
176 4494
177 4494
178 4512
179 4494
180 4529
181 4527
182 183
182 190
182 194
182 4528
184 185
184 4503
186 187
186 4504
188 4494
189 4503
191 4517
192 4525
193 4494
195 4494
196 197
197 204
198 199
199 204
200 204
201 204
202 203
203 204
204 4754
205 212
206 212
207 212
208 212
209 212
210 212
211 212
212 213
212 214
212 215
212 216
212 217
212 4799
218 220
218 3191
218 4798
218 4799
219 220
221 224
222 224
223 224
224 4672
225 4678
226 4680
227 4679
228 4679
229 230
229 4686
231 4680
232 4680
233 4679
234 235
235 4681
236 4678
237 4678
238 239
239 240
239 4681
241 4679
242 243
243 4247
244 5097
245 5096
246 249
247 5097
248 249
249 5095
249 5096
250 251
250 4399
252 253
253 255
253 256
253 4444
254 255
257 258
258 4466
259 260
260 5282
261 262
261 265
261 1577
261 4185
262 2751
262 4898
263 265
264 265
265 266
265 267
268 269
269 4258
270 271
271 4548
272 273
272 4328
274 279
274 283
275 279
276 279
277 279
278 279
279 280
279 281
279 282
283 869
283 5035
284 315
285 315
286 315
287 315
288 291
289 291
290 291
291 292
291 4866
293 4838
294 4860
295 315
296 315
297 3667
298 315
299 4866
300 3667
301 302
302 4890
303 315
304 4852
305 3667
306 4860
307 315
308 315
309 315
310 315
311 4889
312 315
313 3667
314 315
315 321
315 323
315 324
315 325
315 329
315 4804
315 4811
315 4864
316 4831
317 318
317 319
317 4882
320 4852
322 4890
326 4864
327 4842
328 4831
330 4824
331 347
332 347
333 347
334 347
335 347
336 5289
337 347
338 347
339 5290
340 347
341 347
342 347
343 347
344 5291
345 347
346 5291
347 348
347 349
347 350
347 5288
347 5289
351 4781
352 353
353 4780
353 4781
354 4781
355 357
356 357
357 5296
358 370
359 370
360 370
361 5227
362 370
363 370
364 370
365 370
366 370
367 5226
368 5227
369 370
370 371
370 372
370 373
370 374
370 5188
370 5226
375 378
376 378
377 378
378 379
378 380
378 4702
381 3122
381 4661
381 4673
382 5030
383 5029
384 385
385 5129
386 4462
387 4461
388 4462
389 4462
390 391
391 392
391 4660
393 394
394 395
394 5278
396 4211
397 399
398 4211
399 400
399 4210
399 4211
401 1450
401 5015
401 5016
402 404
403 404
404 405
404 5025
406 4242
407 4243
408 4242
409 4242
410 4242
411 4242
412 414
413 414
414 4220
415 416
415 5184
417 421
418 421
419 421
420 421
421 5303
422 424
423 424
424 425
424 4540
426 428
427 428
428 5167
429 4748
430 4749
431 432
432 4542
433 4493
434 4492
435 4492
436 4493
437 438
437 4277
439 440
440 441
440 4691
442 443
443 444
443 4323
445 446
446 5287
447 448
448 449
448 4945
450 455
451 455
452 455
453 455
454 455
455 456
455 457
455 4542
458 4215
459 4215
460 461
461 4213
461 4215
462 468
463 468
464 468
465 468
466 468
467 468
468 469
468 470
468 471
468 4214
472 473
473 4328
474 475
474 4945
476 1178
476 5133
476 5134
477 5137
478 5137
479 5143
480 481
481 5144
482 483
483 5144
484 5137
485 5137
486 5137
487 5140
488 5137
489 5137
490 5137
491 492
491 5140
493 5137
494 5137
495 499
496 499
497 499
498 499
499 500
499 5093
501 5093
502 503
502 5092
502 5093
504 515
505 515
506 515
507 4438
508 515
509 4436
510 515
511 4434
512 4431
513 4433
514 4432
515 4430
515 4431
515 4434
516 4433
517 4435
518 4438
519 4437
520 521
520 5276
521 528
522 528
523 528
524 528
525 528
526 528
527 528
528 529
528 530
531 532
531 2113
533 534
534 4794
535 536
536 728
537 540
537 1226
537 1586
537 1950
537 2245
537 3031
537 4946
538 540
539 540
540 541
542 543
542 3409
542 4798
543 544
545 546
546 547
546 4241
548 549
548 4954
550 558
551 555
552 555
553 555
554 555
555 556
555 557
555 558
558 561
559 560
560 4328
561 562
562 4690
562 4805
563 566
564 566
565 566
566 567
566 5009
568 572
569 5009
570 572
571 572
572 573
572 5007
572 5008
574 5011
575 576
576 577
576 5011
578 5005
578 5006
578 5012
579 584
580 584
581 584
582 4403
583 4403
584 587
584 4386
584 4403
584 4404
585 4404
586 4404
588 589
588 1348
590 591
590 4826
592 4820
593 4829
594 4827
595 610
596 4823
597 601
598 601
599 601
600 601
601 602
601 603
601 4827
604 4830
605 4820
606 4830
607 4821
608 610
609 4819
610 2761
610 4816
610 4830
611 4823
612 4822
613 4829
614 4825
615 616
615 1151
617 4420
618 4420
619 4422
620 621
621 622
621 4548
623 624
624 4479
625 626
626 980
627 629
628 629
629 4989
630 1641
630 4988
630 4989
631 632
631 4329
633 4771
634 637
635 636
636 637
637 4701
637 4771
638 4771
639 4216
640 4217
641 4231
642 4216
643 649
644 649
645 649
646 649
647 649
648 649
649 650
649 651
649 5248
652 654
653 654
654 655
654 5285
656 5295
657 658
658 659
658 660
658 5294
658 5295
661 5295
662 4677
663 4677
664 4677
665 4677
666 4677
667 4677
668 670
669 670
670 4954
671 672
672 673
672 674
672 5287
675 2137
675 2173
675 4280
676 1151
677 4999
678 4995
679 4998
680 4996
681 4995
682 1151
683 4999
684 4995
685 1151
686 4999
687 1151
688 1151
689 1151
690 1151
691 4995
692 4995
693 4996
694 695
695 4526
696 697
697 698
697 5256
699 701
700 701
701 702
701 703
701 4243
704 719
705 706
706 4876
707 719
708 719
709 712
710 712
711 712
712 4871
713 714
714 715
714 4876
716 4872
717 4875
718 4874
719 720
719 721
719 4870
719 4871
719 4875
722 4873
723 4874
724 726
725 726
726 5297
727 1400
727 4048
727 4244
727 4326
727 4661
728 4098
728 4661
728 4662
728 4666
729 3400
729 4220
729 5270
730 4227
731 734
732 4227
733 734
734 4220
734 4227
735 738
736 738
737 738
738 739
738 740
738 741
738 4668
742 4666
743 4666
744 748
745 748
746 748
747 748
748 4668
749 4666
750 4669
751 752
752 753
752 4670
754 4670
755 756
756 4672
757 758
758 5271
759 762
760 762
761 762
762 763
762 4236
764 773
765 773
766 770
767 770
768 770
769 770
770 771
770 773
772 773
773 5024
774 776
774 1180
774 1829
774 2746
774 5033
775 776
776 777
778 821
779 821
780 4931
781 4910
782 4909
783 4914
784 4924
785 4915
786 821
787 821
788 821
789 821
790 4934
791 4933
792 4918
793 821
794 821
795 821
796 821
797 4908
798 821
799 821
800 4935
801 4922
802 4924
803 4933
804 821
805 4928
806 821
807 821
808 4930
809 821
810 4902
811 4935
812 4932
813 4904
814 4912
815 816
816 821
817 821
818 4931
819 4922
820 821
821 824
821 826
821 830
821 832
821 833
821 835
821 836
821 838
821 843
821 844
821 845
821 846
821 4897
821 4900
822 4917
823 4919
825 4930
827 4910
828 4911
829 4915
831 4919
834 4927
837 4923
839 4911
840 4916
841 4900
842 4926
847 4914
848 849
848 5002
849 850
849 851
852 854
853 854
855 856
856 857
856 5079
858 5079
859 5077
860 5077
861 5074
861 5077
861 5078
862 5078
863 864
864 4218
865 867
866 867
867 868
867 4981
869 870
871 5236
872 878
873 878
874 5234
875 878
876 5236
877 878
878 879
878 5178
878 5233
880 5235
881 5234
882 890
883 890
884 890
885 5004
886 890
887 890
888 5004
889 890
890 891
890 892
890 893
890 894
890 5004
894 2230
894 5003
895 897
895 5243
896 897
898 901
899 4464
900 4464
901 902
901 4429
901 4464
903 906
904 905
905 906
906 4529
907 924
908 924
909 924
910 5279
911 5279
912 924
913 5279
914 5279
915 5279
916 5279
917 5279
918 5279
919 924
920 921
921 924
922 5279
923 5279
924 5275
924 5279
925 5279
926 927
926 5275
928 4049
928 4246
928 4297
929 930
930 931
931 4298
932 934
933 934
934 5142
935 936
936 4296
937 938
938 4262
939 940
940 941
940 5229
942 4784
943 4783
944 946
945 946
946 948
946 949
946 950
946 4779
946 4783
947 4784
951 952
952 4773
953 955
953 4988
954 955
956 957
957 5297
958 960
959 960
960 4976
961 962
962 4208
963 964
964 981
964 1156
964 3405
964 3519
964 4797
965 974
966 974
967 974
968 974
969 974
970 974
971 974
972 974
973 974
974 975
974 976
974 977
974 978
974 979
974 4284
980 1037
980 1145
980 1606
980 2701
980 3638
980 4798
981 2223
982 1022
982 1451
982 1978
983 984
984 985
984 4846
986 987
987 4843
988 4853
989 990
990 1022
991 4855
992 1022
993 4849
994 999
995 999
996 999
997 999
998 999
999 1000
999 1001
999 4851
1002 4848
1003 1022
1004 1010
1005 1010
1006 1010
1007 1010
1008 1010
1009 1010
1010 1011
1010 4856
1012 1013
1013 4848
1014 4857
1015 1018
1016 1018
1017 1018
1018 4856
1019 1020
1020 4853
1021 1022
1022 4839
1023 1025
1024 1025
1025 1026
1025 4851
1027 4855
1028 1029
1028 1030
1028 4846
1031 4857
1032 4850
1033 1034
1033 4845
1035 1037
1036 1037
1037 1040
1038 1040
1039 1040
1040 1041
1042 1044
1042 1045
1042 5012
1043 1044
1046 1049
1047 5164
1048 5163
1049 5162
1049 5163
1049 5164
1050 1051
1050 5163
1052 5165
1053 1054
1054 5165
1055 1056
1056 4328
1057 1061
1058 1063
1059 1063
1060 1063
1061 1062
1061 1063
1063 5225
1064 1065
1065 2113
1066 1067
1067 1068
1067 4977
1069 1071
1070 1071
1071 4258
1072 1077
1073 1077
1074 1077
1075 4443
1076 4442
1077 1079
1077 4440
1077 4442
1078 4443
1080 1082
1081 1082
1082 1083
1082 5225
1084 4979
1085 4765
1086 4765
1087 4899
1088 5051
1089 4979
1090 4814
1091 4814
1092 4765
1093 4765
1094 4899
1095 4765
1096 4800
1097 1100
1098 1100
1099 1100
1100 1101
1100 4772
1100 4776
1102 4776
1103 4776
1104 1105
1105 5168
1106 1107
1107 1108
1107 4774
1109 1111
1110 1111
1111 1112
1112 1113
1112 1114
1112 1115
1112 2236
1116 4676
1117 4676
1118 4676
1119 4676
1120 4676
1121 4676
1122 4694
1123 4696
1124 4676
1125 1126
1125 4695
1127 4676
1128 4687
1129 4676
1130 4687
1131 4676
1132 1133
1133 4693
1134 4694
1135 4697
1136 4697
1137 4682
1138 4692
1139 1140
1139 4149
1141 1142
1142 1143
1142 5123
1144 1145
1146 1147
1146 4385
1148 1150
1149 1150
1150 4994
1151 4993
1151 4994
1152 1153
1153 4233
1154 1155
1155 1156
1157 1161
1158 1161
1159 1161
1160 1161
1161 1162
1161 4468
1163 1164
1164 5187
1165 4334
1166 4345
1167 4343
1168 4334
1169 4345
1170 4343
1171 4342
1172 1173
1172 4954
1174 3719
1175 3719
1176 1178
1177 1178
1178 1179
1180 1181
1182 1195
1183 5022
1184 5019
1185 1195
1186 1195
1187 5021
1188 5020
1189 5023
1190 1195
1191 5022
1192 5019
1193 1195
1194 5023
1195 1197
1195 1198
1195 5017
1195 5018
1195 5023
1196 1197
1199 1200
1200 1201
1200 1202
1200 1203
1200 1204
1200 5133
1205 1213
1206 1213
1207 1213
1208 1213
1209 1213
1210 1213
1211 1213
1212 1213
1213 1214
1213 1215
1213 5124
1216 1220
1217 1220
1218 1219
1219 1220
1220 1221
1220 5006
1222 1223
1223 4329
1224 1226
1225 1226
1226 1227
1228 3939
1228 4805
1228 4867
1229 4886
1230 4887
1231 1232
1232 1233
1232 4881
1234 1242
1235 1242
1236 1242
1237 1242
1238 1242
1239 1242
1240 1242
1241 1242
1242 1243
1242 4885
1244 1248
1245 1246
1246 1248
1247 4886
1248 1255
1248 1257
1248 4868
1248 4881
1249 1252
1250 1252
1251 1252
1252 1253
1252 4888
1254 1255
1255 1256
1258 1260
1259 1260
1260 1261
1260 4885
1262 4888
1263 1264
1264 5025
1265 1266
1266 1267
1266 4423
1268 4250
1269 4257
1270 4250
1271 4257
1272 4250
1273 4250
1274 4254
1275 4250
1276 4254
1277 4256
1278 4260
1279 4250
1280 4260
1281 4256
1282 4250
1283 1286
1283 1287
1283 4251
1283 4259
1284 4259
1285 4259
1288 4283
1289 2113
1290 4283
1291 1292
1292 4283
1293 4283
1294 4283
1295 4283
1296 4283
1297 4283
1298 4283
1299 4283
1300 4283
1301 4283
1302 4289
1303 5298
1304 4283
1305 4283
1306 4283
1307 4283
1308 2113
1309 4290
1310 2113
1311 4283
1312 4283
1313 4283
1314 4283
1315 4283
1316 4288
1317 4283
1318 4283
1319 4283
1320 4283
1321 2113
1322 2113
1323 1325
1324 1325
1325 1326
1325 4289
1327 4283
1328 4283
1329 4290
1330 4283
1331 4283
1332 1333
1333 1342
1333 1345
1333 5169
1334 1342
1335 1342
1336 1342
1337 1342
1338 1342
1339 1342
1340 1342
1341 1342
1342 1343
1342 1344
1345 1346
1345 1347
1348 3431
1348 3496
1348 5218
1348 5223
1349 1351
1349 1354
1349 5218
1350 1351
1352 1354
1353 1354
1355 1356
1355 5139
1357 1358
1358 5130
1359 5238
1360 5238
1361 5238
1362 5238
1363 5244
1364 5244
1365 5238
1366 5238
1367 5238
1368 5238
1369 5238
1370 5241
1371 5238
1372 5238
1373 5238
1374 5238
1375 4441
1376 1380
1377 1380
1378 1380
1379 4441
1380 4440
1380 4441
1381 1393
1381 5218
1382 1393
1383 1393
1384 1393
1385 5222
1386 1393
1387 5222
1388 5219
1389 1393
1390 5221
1391 1393
1392 5220
1393 1394
1393 1395
1393 1396
1393 1397
1393 1398
1393 1399
1393 5219
1400 1401
1402 1403
1402 4728
1404 4598
1405 4595
1406 4597
1407 4597
1408 4596
1409 4593
1410 4598
1411 1412
1412 1413
1412 4258
1414 1416
1415 1416
1416 1417
1416 4258
1418 1419
1419 1420
1419 4252
1421 4361
1422 4334
1423 4334
1424 4334
1425 4359
1426 4334
1427 4334
1428 4360
1429 4361
1430 1433
1431 1433
1432 1433
1433 4258
1434 1435
1435 4634
1436 1437
1437 1439
1438 1439
1439 1440
1439 5016
1441 1444
1442 1444
1443 1444
1444 1445
1444 1446
1444 1447
1444 1448
1444 5121
1449 1450
1451 4805
1451 4806
1452 4806
1452 4807
1452 4815
1453 1467
1454 1467
1455 4810
1456 4810
1457 1467
1458 1459
1459 4809
1460 4809
1461 1467
1462 1467
1463 1467
1464 1467
1465 1467
1466 1467
1467 1468
1467 4807
1467 4808
1469 1470
1470 4578
1471 1472
1471 1474
1471 1476
1471 4389
1471 4390
1473 4390
1475 4390
1477 1478
1478 4958
1479 1483
1480 1483
1481 1483
1482 1483
1483 1484
1483 1485
1483 1486
1483 1487
1483 5142
1488 1494
1488 5005
1489 1491
1490 1491
1491 5013
1492 1494
1493 1494
1495 1498
1496 1498
1497 1498
1498 1499
1498 5278
1500 4334
1501 4357
1502 4358
1503 4334
1504 4358
1505 4334
1506 4356
1507 4657
1508 4641
1509 1521
1510 1521
1511 4651
1512 4651
1513 1521
1514 1515
1514 4657
1516 1521
1517 4651
1518 1521
1519 1521
1520 1521
1521 1522
1521 1524
1521 1526
1521 4634
1521 4640
1521 4651
1523 4641
1525 4640
1527 5173
1528 5170
1529 5175
1530 5176
1531 1532
1532 5172
1533 5170
1534 5170
1535 5175
1536 5170
1537 1539
1538 1539
1539 5286
1540 1541
1540 4252
1542 1544
1543 1544
1544 5160
1545 1546
1546 1547
1546 4677
1548 1549
1549 4239
1550 4004
1550 4891
1550 5029
1551 4418
1551 4891
1551 5033
1552 1553
1552 1557
1552 1560
1552 1561
1552 1562
1552 1563
1552 1564
1552 5030
1552 5031
1552 5032
1554 5032
1555 1556
1556 5032
1558 5031
1559 5031
1565 1566
1566 1567
1566 1568
1566 1569
1566 4548
1570 1571
1571 1572
1572 1573
1572 1575
1572 5080
1574 1575
1576 1577
1577 1578
1579 1581
1580 1581
1581 1582
1581 5173
1583 1584
1583 4467
1585 1586
1586 1587
1588 1592
1589 4985
1590 4985
1591 1592
1592 4982
1592 4985
1592 4986
1593 4986
1594 4986
1595 1596
1596 1597
1596 4642
1598 1606
1599 1606
1600 1606
1601 1606
1602 1603
1603 1604
1603 1606
1605 1606
1606 1607
1608 4416
1609 4417
1610 4416
1611 4416
1612 1615
1613 1615
1614 1615
1615 4530
1616 1617
1616 5303
1618 1619
1619 4980
1620 1621
1621 1622
1621 5013
1623 1624
1623 5303
1625 1628
1626 1628
1627 1628
1628 1629
1628 4544
1630 1633
1631 1633
1632 1633
1633 1634
1633 4989
1633 4990
1635 1637
1636 1637
1637 1638
1637 1639
1637 4990
1640 4990
1641 1642
1643 1644
1643 4774
1645 1646
1646 5246
1647 1648
1648 1649
1649 5033
1650 1654
1651 1654
1652 1654
1653 1654
1654 5143
1655 4768
1656 1657
1656 4767
1658 4768
1659 1661
1660 1661
1661 5263
1662 1663
1663 2113
1664 1665
1665 4945
1666 1667
1667 4701
1668 1671
1669 4789
1670 4788
1671 1672
1671 1674
1671 4787
1671 4788
1673 4789
1675 1684
1676 1677
1677 5206
1678 5212
1679 1684
1680 1684
1681 1684
1682 5212
1683 1684
1684 1686
1684 1687
1684 5188
1684 5194
1685 5199
1688 5194
1689 1690
1690 4233
1691 1692
1692 4233
1693 1694
1694 4541
1695 1701
1696 4219
1697 1701
1698 1701
1699 1701
1700 4219
1701 1702
1701 1703
1701 1704
1701 1705
1701 4218
1701 4219
1706 1708
1707 1708
1708 5255
1709 1712
1710 1712
1711 1712
1712 1713
1712 1714
1712 5272
1715 1716
1716 1717
1716 5318
1718 4815
1719 4812
1720 4813
1721 4815
1722 4813
1723 1724
1724 4983
1725 1727
1725 4245
1726 1727
1728 4310
1729 4312
1730 1750
1731 4303
1732 4307
1733 4302
1734 1750
1735 4308
1736 1750
1737 4306
1738 4311
1739 1750
1740 1750
1741 1750
1742 1750
1743 1750
1744 4299
1745 4305
1746 1750
1747 1750
1748 1750
1749 4300
1750 1753
1750 1754
1750 1756
1750 1757
1750 1759
1750 4298
1750 4299
1751 4313
1752 4313
1755 4309
1758 4308
1760 4306
1761 1763
1762 1763
1763 5283
1764 4461
1765 1766
1766 4401
1767 1769
1768 1769
1769 4538
1770 1772
1771 1772
1772 5284
1773 1774
1774 2113
1775 1779
1776 1779
1777 1779
1778 1779
1779 4978
1780 1783
1781 1783
1782 1783
1783 4803
1784 1785
1784 5275
1786 1790
1787 1790
1788 1790
1789 1790
1790 1791
1790 5281
1792 1793
1793 5246
1794 1795
1795 1796
1795 5280
1797 1800
1798 1800
1799 1800
1800 1801
1800 4233
1802 1824
1803 1824
1804 1806
1805 1806
1806 5054
1807 5054
1808 5057
1809 5046
1810 1811
1811 5050
1812 1813
1813 5058
1814 1815
1815 5044
1816 1817
1816 5053
1818 1819
1819 5056
1820 1821
1820 5058
1822 5056
1823 5047
1824 5043
1824 5044
1824 5048
1825 5053
1826 5047
1827 3719
1827 5039
1827 5040
1828 1829
1830 1831
1831 5268
1832 4576
1833 4509
1834 4509
1835 4572
1836 4576
1837 4567
1838 4574
1839 4567
1840 4509
1841 4509
1842 4509
1843 4575
1844 4624
1845 4567
1846 4509
1847 4509
1848 4235
1849 4235
1850 4237
1851 4237
1852 4238
1853 4237
1854 4237
1855 4237
1856 4237
1857 4237
1858 4237
1859 4237
1860 4237
1861 4237
1862 4237
1863 4237
1864 1865
1865 4238
1866 4235
1867 4237
1868 4237
1869 1871
1870 1871
1871 1872
1871 4599
1873 1876
1874 1876
1875 1876
1876 4332
1877 1878
1878 4332
1879 1884
1880 1884
1881 1884
1882 1884
1883 1884
1884 1885
1884 1886
1884 4394
1887 1888
1888 4234
1889 5258
1890 5258
1891 5258
1892 5258
1893 5258
1894 5258
1895 5258
1896 5258
1897 5259
1898 5258
1899 5258
1900 5258
1901 5258
1902 5258
1903 5258
1904 5258
1905 5258
1906 5258
1907 5258
1908 5258
1909 5258
1910 5258
1911 5258
1912 5258
1913 1914
1914 5145
1915 4266
1916 4266
1917 4274
1918 4272
1919 4266
1920 4266
1921 4266
1922 4266
1923 1924
1924 4270
1925 1926
1925 4274
1927 4266
1928 4272
1929 4266
1930 1931
1931 4268
1932 4266
1933 1939
1934 1939
1935 1939
1936 1939
1937 1939
1938 1939
1939 4266
1940 4273
1941 4266
1942 4266
1943 1945
1944 1945
1945 5256
1946 1950
1947 1950
1948 1950
1949 1950
1950 1951
1952 1956
1953 1956
1954 4665
1955 4665
1956 4662
1956 4664
1957 1959
1958 1959
1959 4664
1960 4984
1961 1963
1962 1963
1963 4983
1963 4984
1964 4984
1965 1967
1966 1967
1967 5237
1968 1969
1968 4364
1970 1972
1971 1972
1972 1973
1972 5007
1974 1975
1974 4247
1976 1977
1977 1978
1978 1979
1979 1980
1979 1981
1982 1983
1983 1984
1983 5305
1985 1986
1986 5299
1987 2287
1988 1989
1989 4379
1990 5209
1991 1992
1991 5204
1993 5201
1994 5201
1995 4674
1996 4674
1997 4699
1998 4746
1999 4732
2000 4727
2001 4674
2002 4742
2003 4701
2004 4674
2005 4701
2006 4715
2007 2008
2008 2009
2008 4722
2010 4721
2011 2012
2012 4714
2013 4745
2014 4731
2015 4737
2016 4758
2017 4740
2018 2021
2019 2021
2020 2021
2021 2022
2021 4755
2023 4736
2024 4713
2025 4730
2026 2027
2027 4726
2028 4729
2029 4674
2030 4763
2031 4674
2032 4674
2033 4727
2034 4742
2035 4755
2036 4718
2037 4737
2038 4674
2039 4733
2040 4674
2041 2042
2042 2043
2042 4759
2044 4674
2045 2046
2046 4722
2047 4699
2048 2049
2049 4720
2050 4760
2051 4759
2052 4741
2053 4674
2054 4674
2055 4713
2056 4674
2057 4698
2058 2069
2059 2069
2060 2069
2061 2069
2062 2069
2063 2069
2064 2069
2065 2069
2066 2069
2067 2069
2068 2069
2069 2070
2069 2071
2069 4761
2072 4717
2073 4701
2074 2075
2075 2076
2075 2077
2075 4720
2078 4712
2079 4701
2080 4712
2081 4674
2082 4715
2083 4757
2084 2085
2085 4744
2086 4701
2087 4701
2088 4732
2089 4745
2090 4744
2091 2092
2092 4740
2093 4721
2094 4701
2095 4714
2096 4716
2097 2098
2097 2099
2097 2100
2097 2101
2097 5298
2102 2103
2103 2104
2103 4334
2105 2107
2106 2107
2107 2113
2108 2109
2109 4538
2110 2111
2111 4279
2112 2113
2113 2194
2113 3134
2113 3581
2113 4244
2113 4245
2113 4252
2114 2223
2114 3032
2114 5260
2115 4279
2116 4279
2117 4279
2118 4258
2119 4258
2120 4279
2121 4354
2122 4405
2123 4279
2124 4258
2125 4258
2126 4365
2127 2128
2128 2129
2128 4371
2130 4279
2131 4279
2132 4279
2133 4279
2134 4279
2135 4258
2136 4371
2138 4405
2139 4344
2140 4279
2141 4354
2142 4279
2143 4414
2144 4424
2145 4258
2146 2147
2147 2148
2147 4324
2149 4279
2150 4414
2151 5305
2152 4258
2153 4428
2154 4428
2155 2167
2156 2167
2157 2167
2158 2167
2159 2167
2160 2167
2161 2167
2162 2167
2163 2167
2164 2167
2165 2167
2166 2167
2167 2168
2167 4292
2169 4406
2170 4258
2171 4279
2172 4279
2174 4258
2175 4279
2176 4381
2177 4258
2178 4381
2179 4402
2180 4279
2181 4279
2182 4279
2183 4324
2184 4291
2185 4279
2186 4258
2187 4344
2188 4258
2189 4397
2190 4279
2191 4258
2192 2193
2193 5224
2194 2195
2196 2200
2197 2200
2198 2200
2199 2200
2200 4252
2201 2202
2202 5230
2203 2204
2204 2205
2205 4957
2206 4677
2207 4682
2208 4684
2209 4686
2210 4684
2211 4685
2212 4682
2213 4689
2214 4688
2215 2216
2216 4689
2217 4683
2218 4677
2219 2220
2219 2221
2219 2222
2219 5223
2223 4898
2224 4514
2225 4610
2226 4519
2227 4610
2228 2230
2229 2230
2230 2231
2232 2233
2232 4787
2234 2235
2234 5120
2236 2239
2236 3565
2237 2239
2238 2239
2239 2240
2241 5052
2242 5045
2243 2245
2244 2245
2245 2246
2247 2250
2247 5245
2248 2250
2249 2250
2251 2252
2252 5158
2253 3566
2254 3566
2255 2258
2256 2258
2257 2258
2258 4795
2259 3566
2260 3566
2261 2265
2262 2265
2263 2265
2264 2265
2265 2266
2265 2267
2265 2268
2265 2269
2265 3566
2270 2271
2270 3566
2272 2275
2273 2275
2274 2275
2275 2276
2275 2277
2275 2278
2278 4801
2279 2287
2280 2287
2281 2282
2282 2287
2283 4383
2284 4384
2285 2287
2286 4384
2287 2292
2287 4379
2287 4380
2288 4380
2289 4380
2290 4382
2291 4380
2293 4488
2294 4488
2295 4491
2296 4488
2297 2298
2298 2299
2298 4490
2300 4488
2301 2304
2302 2304
2303 2304
2304 2305
2304 2306
2304 2307
2304 2308
2304 4399
2309 2310
2309 4577
2311 4770
2312 4750
2313 4768
2314 4770
2315 2316
2316 4750
2317 4703
2318 4703
2319 4703
2320 2321
2321 4791
2322 4494
2323 2326
2324 2326
2325 2326
2326 2327
2326 2328
2326 2329
2326 2330
2326 4571
2331 2363
2332 2363
2333 4562
2334 2363
2335 2363
2336 2337
2337 4564
2338 4561
2339 2340
2340 2341
2340 2363
2342 2345
2343 2345
2344 2345
2345 4573
2346 4563
2347 4570
2348 2363
2349 2350
2350 4562
2351 4569
2352 4563
2353 4573
2354 2363
2355 2363
2356 2358
2357 2358
2358 2359
2358 2360
2358 4566
2361 4569
2362 2363
2363 2364
2363 2365
2363 2366
2363 2367
2363 2369
2363 4559
2363 4560
2363 4564
2368 4566
2370 4326
2370 4559
2370 4579
2371 2374
2372 2373
2373 2374
2374 4602
2375 2376
2376 4468
2377 4355
2378 4334
2379 4334
2380 4334
2381 4334
2382 4334
2383 4336
2384 4334
2385 4334
2386 4334
2387 4334
2388 4334
2389 2391
2390 2391
2391 4210
2392 2393
2392 5239
2392 5293
2393 4232
2393 4691
2394 2396
2395 2396
2396 2397
2396 4323
2398 2399
2399 5303
2400 2404
2401 2404
2402 4396
2403 2404
2404 4395
2404 4396
2405 4396
2406 2409
2407 2409
2408 2409
2409 2410
2409 2411
2409 2412
2409 2413
2409 4329
2414 2415
2414 4526
2416 4222
2417 4222
2418 2419
2419 2420
2419 4226
2421 4222
2422 4222
2423 2427
2424 2427
2425 2427
2426 2427
2427 2428
2427 2429
2427 2430
2427 4229
2431 4230
2432 4225
2433 4228
2434 2435
2435 4230
2436 4226
2437 4222
2438 4222
2439 4222
2440 4222
2441 4222
2442 4222
2443 4222
2444 4225
2445 4224
2446 4231
2447 2448
2447 4332
2449 2450
2450 4421
2451 2453
2452 2453
2453 5095
2454 2463
2455 2463
2456 2463
2457 2463
2458 2463
2459 2463
2460 2463
2461 2463
2462 2463
2463 5265
2464 2468
2464 4029
2465 2468
2466 2468
2467 2468
2468 2469
2468 2470
2471 2472
2472 2473
2473 4579
2474 4942
2475 2477
2476 4942
2477 2478
2477 4938
2477 4942
2479 2480
2480 4937
2481 2482
2482 4943
2483 2497
2484 2497
2485 2497
2486 2497
2487 2497
2488 4346
2489 4350
2490 4347
2491 2497
2492 2497
2493 4352
2494 2497
2495 2497
2496 4349
2497 2498
2497 2499
2497 2503
2497 2505
2497 2506
2497 4339
2497 4346
2497 4348
2500 4347
2501 4353
2502 4348
2504 4353
2507 4352
2508 2510
2509 2510
2510 5246
2511 2513
2512 2513
2513 4981
2514 2561
2515 2561
2516 2561
2517 2561
2518 2561
2519 2561
2520 2561
2521 2561
2522 2561
2523 2561
2524 2561
2525 2561
2526 2561
2527 2561
2528 2561
2529 2561
2530 2561
2531 2561
2532 2561
2533 2561
2534 2561
2535 2561
2536 2561
2537 4373
2538 2561
2539 2561
2540 4376
2541 2561
2542 4377
2543 2544
2544 2545
2544 4372
2546 4377
2547 4369
2548 4373
2549 4378
2550 2561
2551 2552
2551 2553
2551 4370
2554 4370
2555 2561
2556 2561
2557 2561
2558 2561
2559 4372
2560 2561
2561 2562
2561 2564
2561 2566
2561 4364
2561 4366
2563 4376
2565 4378
2567 2568
2568 2569
2568 4791
2570 4603
2571 2573
2572 4603
2573 2574
2573 4583
2573 4603
2575 2576
2576 4379
2577 4878
2578 4880
2579 2586
2580 2586
2581 2586
2582 4880
2583 4877
2584 2586
2585 2586
2586 2587
2586 4869
2586 4877
2588 4879
2589 4334
2590 4334
2591 4334
2592 2596
2593 2596
2594 2596
2595 2596
2596 4398
2597 4334
2598 4334
2599 4334
2600 4334
2601 2603
2602 2603
2603 2604
2603 2605
2603 2606
2603 4398
2607 4334
2608 4334
2609 4334
2610 2611
2611 4604
2612 5068
2613 5027
2614 4991
2615 5010
2616 4991
2617 4991
2618 4991
2619 4991
2620 2622
2621 2622
2622 2623
2622 5066
2624 4991
2625 5027
2626 4991
2627 5072
2628 5001
2629 4991
2630 5026
2631 5010
2632 2633
2632 4991
2634 2635
2635 5001
2636 4991
2637 4991
2638 2640
2639 2640
2640 5072
2641 2643
2642 2643
2643 2644
2643 5014
2645 4991
2646 4991
2647 2648
2648 4029
2649 2659
2650 5094
2651 2655
2652 2655
2653 2655
2654 2655
2655 2656
2655 2657
2655 2658
2655 5094
2659 2660
2659 5092
2659 5094
2660 2661
2662 2664
2663 2664
2664 2665
2664 4558
2666 2683
2667 2683
2668 4537
2669 2683
2670 2683
2671 4536
2672 4537
2673 4534
2674 2683
2675 2683
2676 2683
2677 2683
2678 2683
2679 4533
2680 2683
2681 2683
2682 4535
2683 2684
2683 2687
2683 2689
2683 4530
2683 4531
2683 4535
2685 4534
2686 4532
2688 4533
2690 2691
2691 4296
2692 2693
2693 5303
2694 2695
2695 2696
2695 5303
2697 2699
2698 2699
2699 4870
2700 2701
2702 2703
2703 5277
2704 2705
2705 2706
2705 2707
2705 5271
2708 2714
2709 2714
2710 2714
2711 2714
2712 2714
2713 2714
2714 2715
2714 2716
2714 5261
2717 2718
2718 3392
2719 2727
2720 2727
2721 5126
2722 2727
2723 2727
2724 2727
2725 2727
2726 5126
2727 2728
2727 2729
2727 2731
2727 5124
2727 5125
2730 5125
2732 5034
2733 5052
2734 2735
2735 4214
2736 4967
2737 4978
2738 4967
2739 4977
2740 2741
2740 4252
2742 2743
2743 5303
2744 2745
2745 4423
2746 2747
2748 2749
2748 2750
2750 2751
2752 2759
2753 2759
2754 2759
2755 2759
2756 2759
2757 2759
2758 2759
2759 2760
2759 5230
2761 2786
2761 4806
2762 2786
2763 2764
2764 2765
2764 2766
2764 4834
2767 4837
2768 2769
2769 4837
2770 2771
2771 4836
2772 2774
2773 2774
2774 4835
2775 2782
2776 2782
2777 2782
2778 2782
2779 2782
2780 2782
2781 2782
2782 2783
2782 2784
2782 4835
2785 4836
2786 2788
2786 4832
2787 2788
2789 4582
2790 4582
2791 4582
2792 4582
2793 4582
2794 4582
2795 4582
2796 4638
2797 4582
2798 2801
2799 2801
2800 2801
2801 4629
2802 4582
2803 2804
2803 4589
2805 2807
2806 2807
2807 2808
2807 2809
2807 4592
2810 4582
2811 2812
2812 4615
2813 4622
2814 4582
2815 4582
2816 2817
2816 4587
2818 4626
2819 2821
2820 2821
2821 2822
2821 4639
2823 4627
2824 4621
2825 4623
2826 4601
2827 4613
2828 4582
2829 2831
2830 2831
2831 2832
2831 4637
2833 4582
2834 4629
2835 4600
2836 4606
2837 4619
2838 4627
2839 4611
2840 4582
2841 2846
2842 2846
2843 2846
2844 2846
2845 2846
2846 4613
2847 2849
2848 2849
2849 4589
2850 4590
2851 2860
2852 2860
2853 2860
2854 2860
2855 2860
2856 2860
2857 2860
2858 2860
2859 2860
2860 2861
2860 2862
2860 2863
2860 2864
2860 4612
2865 4630
2866 4632
2867 4582
2868 4631
2869 2870
2869 4633
2871 4608
2872 4582
2873 4626
2874 2875
2875 2876
2875 2877
2875 2878
2875 4600
2879 2880
2880 4639
2881 4582
2882 4636
2883 4582
2884 2886
2885 2886
2886 2887
2886 4582
2888 4582
2889 4633
2890 2894
2891 2894
2892 2894
2893 2894
2894 2895
2894 2896
2894 2897
2894 2898
2894 2899
2894 2900
2894 2901
2894 4609
2902 4582
2903 4582
2904 4582
2905 4595
2906 4582
2907 4612
2908 4582
2909 4592
2910 4623
2911 4619
2912 4591
2913 4582
2914 2916
2915 2916
2916 2917
2916 4637
2918 4620
2919 4582
2920 4628
2921 2924
2922 2924
2923 2924
2924 5176
2925 2938
2926 2928
2927 2928
2928 5192
2929 2930
2930 2931
2930 2938
2932 2938
2933 2935
2934 2935
2935 5190
2936 2938
2937 2938
2938 2944
2938 5179
2938 5189
2939 2940
2940 5192
2941 2942
2942 5189
2943 5191
2945 2953
2946 2953
2947 2953
2948 2953
2949 2953
2950 2953
2951 2953
2952 2953
2953 2954
2953 2955
2953 5172
2956 2957
2956 5028
2957 2958
2957 2959
2960 2964
2960 5245
2961 2964
2962 2964
2963 2964
2964 2965
2966 2967
2967 4329
2968 2969
2969 2970
2969 4780
2971 2972
2972 2973
2972 4240
2974 2976
2975 4663
2976 2977
2976 4662
2976 4663
2978 4663
2979 2989
2980 4971
2981 4972
2982 4973
2983 2989
2984 4972
2985 4974
2986 4975
2987 2989
2988 4974
2989 2991
2989 2992
2989 2993
2989 4969
2989 4970
2989 4975
2990 4975
2994 4460
2995 4458
2996 4457
2997 4460
2998 4455
2999 4446
3000 4452
3001 4446
3002 4458
3003 4446
3004 4454
3005 4452
3006 4454
3007 3009
3008 3009
3009 3010
3009 3011
3009 4459
3012 4446
3013 4457
3014 4463
3015 3016
3016 3017
3016 3018
3016 3019
3016 3020
3016 4455
3021 3022
3022 4944
3023 3024
3024 3025
3024 4233
3026 3027
3027 4233
3028 3031
3029 3031
3030 3031
3032 3034
3032 4046
3033 3034
3035 3036
3036 4602
3037 3038
3037 4483
3039 3041
3040 3041
3041 5250
3042 3049
3043 3049
3044 3049
3045 3049
3046 3047
3047 3049
3048 3049
3049 3050
3049 5286
3051 3052
3052 5080
3053 4505
3054 4505
3055 4505
3056 4505
3057 4505
3058 4505
3059 4505
3060 4505
3061 4505
3062 4505
3063 4505
3064 4505
3065 4756
3066 4782
3067 4624
3068 4756
3069 4505
3070 4505
3071 4769
3072 4785
3073 4792
3074 4505
3075 4743
3076 4775
3077 4743
3078 4785
3079 4769
3080 4766
3081 4743
3082 4505
3083 4775
3084 4792
3085 3086
3086 5275
3087 3107
3088 3107
3089 3107
3090 3107
3091 4959
3092 3107
3093 3107
3094 3107
3095 3096
3096 3107
3097 3107
3098 3107
3099 4962
3100 3107
3101 3107
3102 4961
3103 4963
3104 3107
3105 3107
3106 3107
3107 3108
3107 3109
3107 3113
3107 3115
3107 3116
3107 3117
3107 3118
3107 4958
3107 4959
3107 4962
3110 4963
3111 4961
3112 3113
3114 4960
3119 3121
3120 3121
3121 4764
3122 3123
3124 3129
3125 3129
3126 3127
3127 3129
3128 3129
3129 3130
3129 3131
3129 3132
3129 5161
3133 3134
3135 3136
3136 3137
3136 5123
3138 3139
3139 3140
3139 4276
3141 3150
3142 3150
3143 3150
3144 3150
3145 3150
3146 3150
3147 3150
3148 3150
3149 3150
3150 3151
3150 3152
3150 3153
3150 5274
3154 5267
3155 5267
3156 5267
3157 5267
3158 5267
3159 5265
3160 5267
3161 5266
3162 5267
3163 5267
3164 5267
3165 5267
3166 5267
3167 5268
3168 5267
3169 5267
3170 5267
3171 5269
3172 5267
3173 5267
3174 5267
3175 5267
3176 5267
3177 5267
3178 3179
3178 4389
3180 3392
3181 5167
3181 5168
3181 5179
3182 3184
3183 3184
3184 3185
3184 5180
3186 3187
3186 5183
3188 3190
3189 3190
3190 4466
3191 3192
3191 3193
3191 3194
3195 5305
3196 3271
3197 5305
3198 5310
3199 5305
3200 5305
3201 5311
3202 5305
3203 5305
3204 5305
3205 5305
3206 5305
3207 5305
3208 4207
3209 5305
3210 5305
3211 5305
3212 5305
3213 5317
3214 5316
3215 5305
3216 5305
3217 5305
3218 3222
3219 3222
3220 3222
3221 3222
3222 5320
3223 4205
3224 5305
3225 5312
3226 5305
3227 5305
3228 5305
3229 5305
3230 5305
3231 3234
3232 3234
3233 3234
3234 3235
3234 5323
3236 5315
3237 5305
3238 3239
3239 3240
3239 4204
3241 5319
3242 5305
3243 5305
3244 5305
3245 5305
3246 5305
3247 5305
3248 5305
3249 4205
3250 4209
3251 3252
3252 4209
3253 4203
3254 5305
3255 5305
3256 5305
3257 5305
3258 5305
3259 5305
3260 5305
3261 4203
3262 5309
3263 5305
3264 3271
3265 3271
3266 3271
3267 3271
3268 3271
3269 3271
3270 3271
3271 5314
3272 5305
3273 5305
3274 5305
3275 5305
3276 5305
3277 4206
3278 5320
3279 5305
3280 3281
3280 5314
3282 5305
3283 5305
3284 5315
3285 3286
3286 3287
3286 5323
3288 5305
3289 5322
3290 4207
3291 5305
3292 3298
3293 3294
3294 3298
3295 3296
3296 3298
3297 3298
3298 3299
3298 3300
3300 5217
3301 3302
3302 3303
3302 4330
3304 3320
3305 4659
3306 4643
3307 4648
3308 4652
3309 4658
3310 3320
3311 4644
3312 4656
3313 4644
3314 4647
3315 4650
3316 4659
3317 4654
3318 4646
3319 3320
3320 4642
3320 4643
3320 4652
3321 4643
3322 4646
3323 4643
3324 4656
3325 4649
3326 4654
3327 4650
3328 3332
3329 3331
3330 3331
3331 3332
3332 3333
3332 5229
3334 3335
3335 4804
3336 3337
3337 3338
3337 4415
3339 3340
3340 5195
3341 3342
3342 3343
3342 3344
3342 3345
3342 4548
3346 3347
3347 5145
3348 3367
3349 3367
3350 3367
3351 3367
3352 3367
3353 3367
3354 3367
3355 3367
3356 3367
3357 3367
3358 3367
3359 4481
3360 4480
3361 3367
3362 4482
3363 3367
3364 3367
3365 4482
3366 3367
3367 3368
3367 3369
3367 3370
3367 3371
3367 3372
3367 3373
3367 4469
3367 4480
3374 3375
3375 3686
3375 4793
3375 4794
3376 3377
3377 3378
3377 3380
3377 3381
3377 4794
3378 3379
3382 3386
3383 3384
3383 3385
3383 3386
3386 4277
3387 3388
3387 3389
3387 3390
3387 3391
3387 5294
3392 4201
3393 3394
3393 5161
3395 3400
3396 3397
3397 3400
3398 3400
3399 3400
3400 3401
3402 3403
3403 4445
3404 3405
3406 3409
3407 3409
3408 3409
3409 3410
3409 3411
3412 3413
3412 4976
3414 3415
3414 4252
3416 3418
3417 3418
3418 3419
3418 4544
3420 3421
3421 3422
3421 3423
3421 4799
3424 3425
3425 5035
3425 5036
3425 5217
3426 3427
3426 5217
3427 3429
3428 3429
3430 3443
3430 3444
3430 3451
3430 3452
3430 3453
3430 3454
3430 3461
3430 3463
3430 3470
3430 3471
3430 3475
3430 3476
3430 3477
3430 3484
3430 5193
3430 5195
3430 5197
3431 4201
3431 5035
3432 3434
3433 3434
3434 5040
3435 3440
3436 3440
3437 3440
3438 3440
3439 3440
3440 5210
3441 5205
3442 5213
3445 5215
3446 5211
3447 3448
3448 5202
3449 5211
3450 5197
3455 3456
3456 5208
3457 5210
3458 3459
3459 5205
3460 5214
3462 5196
3464 5215
3465 3466
3465 5198
3467 5213
3468 5197
3469 5214
3472 5197
3473 3474
3474 5207
3478 3479
3478 3480
3478 5207
3481 3483
3482 3483
3483 5196
3485 5197
3486 3488
3487 3488
3488 3489
3488 4332
3490 3491
3490 3492
3490 4660
3493 3494
3494 4282
3495 3496
3497 3509
3498 3509
3499 3509
3500 3509
3501 3509
3502 3509
3503 3509
3504 3509
3505 3509
3506 3509
3507 3509
3508 3509
3509 3510
3509 3512
3509 3513
3509 3515
3509 3518
3509 3519
3511 3512
3514 3515
3515 3516
3515 3517
3520 3540
3521 4553
3522 3540
3523 3524
3524 4556
3525 3527
3526 3527
3527 4557
3528 4553
3529 3533
3530 3533
3531 3533
3532 3533
3533 3534
3533 3535
3533 4555
3536 3540
3537 4557
3538 4556
3539 4552
3540 3542
3540 3544
3540 4547
3540 4549
3541 4549
3543 4555
3545 3548
3546 3548
3547 3548
3548 4394
3549 3550
3549 3551
3549 3552
3549 3553
3549 3554
3549 5259
3555 3557
3556 3557
3557 4236
3558 3559
3559 4401
3560 3564
3561 3564
3562 3564
3563 3564
3564 5296
3565 4793
3565 5260
3566 3569
3566 3570
3566 3571
3566 3572
3566 3573
3566 3576
3566 3577
3566 3578
3566 4793
3566 4795
3567 3568
3568 4940
3574 3576
3575 3576
3579 4795
3580 3581
3582 3583
3583 4136
3584 5087
3585 5041
3586 5089
3587 5082
3588 3591
3589 3591
3590 3591
3591 3592
3591 5085
3593 3594
3593 5086
3595 3596
3596 5091
3597 5090
3598 5041
3599 5087
3600 3601
3600 3602
3600 3603
3600 5091
3604 5041
3605 5084
3606 3607
3607 3608
3607 5088
3609 5041
3610 5041
3611 5089
3612 4995
3613 3614
3614 4258
3615 3621
3616 3621
3617 3621
3618 3621
3619 3621
3620 3621
3621 3622
3621 3623
3621 5273
3624 4546
3625 3633
3626 3633
3627 3633
3628 3633
3629 3633
3630 3633
3631 3633
3632 4546
3633 4545
3633 4546
3634 4546
3635 3636
3636 5142
3637 3638
3638 3639
3638 3640
3641 3645
3642 3645
3643 3645
3644 3645
3645 4212
3646 3658
3647 3658
3648 5147
3649 3658
3650 5157
3651 5150
3652 5155
3653 5148
3654 5156
3655 5157
3656 5151
3657 5156
3658 3659
3658 3664
3658 5135
3658 5146
3658 5157
3660 5152
3661 5153
3662 5152
3663 5154
3665 3666
3666 5148
3667 4811
3667 4824
3668 3670
3669 3670
3670 4786
3671 3672
3672 3673
3672 5209
3674 3686
3675 3686
3676 3686
3677 3686
3678 3686
3679 3686
3680 3686
3681 3686
3682 3686
3683 3686
3684 3686
3685 3686
3686 3687
3686 3688
3686 3689
3686 3690
3686 3691
3686 3692
3693 3698
3694 3698
3695 3698
3696 3698
3697 3698
3698 3699
3698 3700
3698 5303
3701 5112
3702 3705
3703 3705
3704 3705
3705 5119
3706 5103
3707 5102
3708 3709
3709 5108
3710 3711
3710 5106
3712 5101
3713 5113
3714 3715
3715 3716
3715 5112
3717 5113
3718 5117
3719 3730
3719 3736
3719 5098
3720 5107
3721 3722
3721 5111
3723 5110
3724 5105
3725 3726
3725 3727
3725 5109
3728 5104
3729 5116
3731 5119
3732 3733
3733 5116
3734 3736
3735 3736
3736 3737
3736 3738
3739 3740
3740 5118
3741 3742
3742 5118
3743 5108
3744 3751
3744 5193
3745 5216
3746 3749
3747 3749
3748 3749
3749 3751
3750 5216
3751 3752
3751 5216
3753 3755
3754 3755
3755 3756
3755 3757
3755 5162
3758 3759
3759 3760
3759 4328
3761 3762
3761 4463
3763 3765
3764 3765
3765 5318
3766 3767
3767 3768
3767 4234
3769 3771
3770 3771
3771 4262
3772 4295
3773 4293
3774 4264
3775 4293
3776 4294
3777 4293
3778 4293
3779 4293
3780 4295
3781 4293
3782 3786
3783 3786
3784 3786
3785 5242
3786 3788
3786 5241
3786 5242
3787 5242
3789 3791
3790 3791
3791 4487
3792 3796
3793 3796
3794 3796
3795 3796
3796 3797
3796 5231
3798 3799
3799 4486
3800 3829
3801 3829
3802 4476
3803 3829
3804 4478
3805 3829
3806 4473
3807 4477
3808 3829
3809 4473
3810 3829
3811 4474
3812 3829
3813 4474
3814 3829
3815 4475
3816 3829
3817 3829
3818 3829
3819 3829
3820 3829
3821 4476
3822 3829
3823 3829
3824 3829
3825 3829
3826 4478
3827 3829
3828 4475
3829 3830
3829 3831
3829 3832
3829 3833
3829 3834
3829 3835
3829 3836
3829 3837
3829 3838
3829 3839
3829 3840
3829 3841
3829 4470
3829 4471
3829 4476
3829 4477
3842 3852
3843 3852
3844 3852
3845 3852
3846 3852
3847 3852
3848 3852
3849 3852
3850 3852
3851 3852
3852 3853
3852 3854
3852 3855
3852 3856
3852 3857
3852 3858
3852 3859
3852 3939
3860 3861
3861 3939
3862 3893
3863 3893
3864 3893
3865 3893
3866 3893
3867 3893
3868 3893
3869 3893
3870 3893
3871 3893
3872 3893
3873 3893
3874 3893
3875 3893
3876 3893
3877 3893
3878 3893
3879 3893
3880 3893
3881 3893
3882 3893
3883 3893
3884 3893
3885 3893
3886 3893
3887 3893
3888 3893
3889 3893
3890 3893
3891 3893
3892 3893
3893 3894
3893 3895
3893 3896
3893 3897
3893 3898
3893 3899
3893 3900
3893 3901
3893 3902
3893 4863
3903 4861
3904 3939
3905 3906
3906 3939
3907 3939
3908 3918
3909 3918
3910 3918
3911 3918
3912 3918
3913 3918
3914 3918
3915 3918
3916 3918
3917 3918
3918 3919
3918 3920
3918 3921
3918 3939
3922 3923
3922 3939
3924 3926
3925 3926
3926 3927
3926 3939
3928 3933
3929 3933
3930 3933
3931 3933
3932 3933
3933 3934
3933 4859
3935 4858
3936 3939
3937 3939
3938 3939
3939 3940
3939 3941
3939 4858
3939 4861
3942 3951
3943 3951
3944 3951
3945 3951
3946 3951
3947 3951
3948 3951
3949 3951
3950 3951
3951 3952
3951 3953
3951 3954
3951 4859
3955 3956
3956 3957
3956 3958
3956 4863
3959 3967
3960 3967
3961 3967
3962 3967
3963 3967
3964 3967
3965 3967
3966 3967
3967 3968
3967 3969
3967 3970
3967 3971
3967 3972
3967 3973
3967 4862
3974 3982
3975 3982
3976 3982
3977 3978
3978 4964
3979 3982
3980 3982
3981 3982
3982 4956
3982 4964
3983 4964
3984 3987
3984 5028
3985 3987
3986 3987
3987 3988
3989 3992
3990 3991
3991 3992
3992 3993
3992 4804
3994 3995
3995 4252
3996 3998
3997 3998
3998 3999
3998 4978
4000 4001
4001 4002
4001 4340
4003 4004
4005 4951
4006 4953
4007 4949
4008 4010
4009 4010
4010 4952
4011 4953
4012 4015
4013 4015
4014 4015
4015 4947
4015 4948
4015 4952
4016 4949
4017 4019
4018 4019
4019 4020
4019 4951
4021 4950
4022 4023
4022 5185
4024 4025
4025 5246
4026 4027
4026 4028
4026 4671
4029 4327
4029 4558
4030 4034
4031 4034
4032 4034
4033 4034
4034 4035
4034 4036
4034 4037
4034 4558
4038 4041
4039 4041
4040 4041
4041 4944
4042 4046
4043 4046
4044 4046
4045 4046
4047 4048
4049 4051
4050 4051
4052 5069
4053 4056
4054 4056
4055 4056
4056 5069
4057 4059
4058 4059
4059 5070
4060 4061
4061 4062
4061 5041
4063 4064
4064 4065
4064 5064
4066 4069
4067 4069
4068 4069
4069 5067
4070 4073
4071 4073
4072 4073
4073 5041
4074 4081
4075 4081
4076 4081
4077 4081
4078 4081
4079 4081
4080 4081
4081 4082
4081 4083
4081 4084
4081 5065
4085 5067
4086 4087
4087 4088
4087 4089
4087 5071
4090 4092
4091 4092
4092 4093
4092 4094
4092 5062
4095 5071
4096 4098
4097 4098
4099 4107
4100 4107
4101 4107
4102 4107
4103 4107
4104 4107
4105 4107
4106 4107
4107 4108
4107 4109
4107 5261
4110 4114
4111 4114
4112 4114
4113 4114
4114 4271
4115 4116
4116 4258
4117 4119
4118 4119
4119 5051
4120 4122
4121 4122
4122 4763
4123 4124
4124 4252
4125 4126
4126 4127
4126 4128
4126 4413
4129 4130
4130 4131
4130 4417
4132 4133
4133 4578
4134 4135
4135 5250
4136 5038
4136 5128
4137 4138
4138 5274
4139 5076
4140 5074
4140 5075
4140 5076
4141 5075
4142 4143
4143 5075
4144 5076
4145 5129
4146 5132
4147 5132
4148 5131
4149 4797
4149 4801
4150 4159
4151 4159
4152 4159
4153 4159
4154 4159
4155 4159
4156 4159
4157 4159
4158 4159
4159 4160
4159 4161
4159 4162
4159 4163
4163 4801
4163 4802
4164 4171
4165 4171
4166 4171
4167 4171
4168 4171
4169 4171
4170 4171
4171 4172
4171 4173
4171 4174
4171 4175
4171 4802
4176 4179
4177 4179
4178 4179
4179 4180
4179 4181
4179 4802
4182 4183
4183 4184
4183 4526
4185 4186
4187 4191
4188 4191
4189 4191
4190 4191
4191 4333
4192 4193
4192 4867
4194 4196
4195 4196
4196 4197
4196 4198
4196 4199
4196 4200
4196 5269
4201 4418
4202 4203
4202 4204
4202 5321
4204 4205
4206 4207
4206 5320
4208 4209
4208 5306
4210 5305
4212 4213
4212 5304
4213 4214
4216 4217
4216 4221
4216 5302
4217 4218
4221 4222
4221 4233
4222 4223
4222 4228
4222 4231
4223 4224
4223 4226
4224 4225
4228 4229
4229 4230
4232 4239
4232 4538
4234 5301
4235 4236
4235 4238
4235 5300
4236 4237
4239 4323
4240 4241
4240 4252
4241 4242
4242 4243
4244 5293
4245 4246
4246 4247
4247 4248
4247 4296
4248 4249
4248 4264
4249 4250
4249 4262
4250 4251
4250 4260
4251 4253
4252 4258
4253 4254
4253 4255
4255 4256
4255 4257
4258 4261
4258 5299
4261 4263
4261 5247
4263 4271
4263 4987
4264 4265
4264 4294
4265 4266
4265 4281
4266 4267
4267 4268
4267 4276
4268 4269
4269 4270
4269 4273
4270 4272
4271 4275
4273 4274
4275 4278
4275 4803
4276 4277
4278 4279
4278 4505
4279 4280
4279 4397
4280 4285
4281 4282
4281 4293
4282 4283
4283 4284
4284 4287
4285 4286
4285 4381
4286 4291
4286 4325
4287 4288
4287 4290
4288 4289
4291 4292
4292 4324
4294 4295
4297 4298
4299 4300
4300 4301
4301 4302
4301 4309
4302 4303
4303 4304
4304 4305
4304 4307
4305 4306
4307 4308
4309 4310
4310 4311
4311 4312
4312 4313
4314 4315
4314 4322
4315 4316
4316 4317
4317 4318
4318 4319
4319 4320
4319 4321
4325 4335
4325 4365
4326 4327
4327 4328
4328 4329
4328 4547
4329 4330
4330 4331
4331 4332
4331 4408
4332 4333
4333 4334
4334 4336
4334 4362
4335 4344
4335 4354
4336 4337
4337 4338
4337 4359
4338 4339
4338 4355
4339 4340
4340 4341
4341 4342
4341 4345
4342 4343
4346 4347
4348 4349
4349 4350
4350 4351
4351 4352
4351 4353
4355 4356
4356 4357
4357 4358
4359 4360
4360 4361
4362 4363
4362 4385
4363 4364
4363 4379
4365 4371
4366 4367
4366 4374
4367 4368
4367 4373
4368 4369
4368 4372
4369 4370
4374 4375
4374 4378
4375 4376
4375 4377
4380 4382
4382 4383
4383 4384
4385 4386
4386 4387
4387 4388
4387 4401
4388 4389
4388 4391
4391 4392
4391 4399
4392 4393
4392 4398
4393 4394
4393 4395
4397 4400
4400 4402
4400 4406
4402 4405
4406 4407
4407 4414
4407 4424
4408 4409
4408 4483
4409 4410
4409 4469
4410 4411
4410 4465
4411 4412
4411 4429
4412 4413
4412 4419
4413 4415
4415 4416
4416 4417
4418 4690
4419 4420
4420 4421
4421 4422
4422 4423
4424 4428
4425 4426
4426 4427
4429 4430
4430 4439
4431 4432
4432 4433
4434 4435
4435 4436
4436 4437
4437 4438
4439 4440
4439 4444
4442 4443
4444 4445
4445 4446
4446 4447
4446 4463
4447 4448
4447 4462
4448 4449
4448 4461
4449 4450
4449 4459
4450 4451
4450 4456
4451 4452
4451 4453
4453 4454
4453 4455
4456 4457
4456 4458
4459 4460
4465 4466
4465 4467
4467 4468
4469 4470
4470 4479
4471 4472
4471 4475
4472 4473
4472 4474
4477 4478
4480 4481
4481 4482
4483 4484
4483 4539
4484 4485
4484 4530
4485 4486
4485 4494
4486 4487
4487 4488
4488 4489
4489 4490
4489 4493
4490 4491
4491 4492
4494 4495
4494 4529
4495 4496
4496 4497
4496 4520
4497 4498
4497 4515
4498 4499
4498 4513
4499 4500
4499 4508
4500 4501
4500 4506
4501 4502
4501 4504
4502 4503
4505 4509
4505 4743
4506 4507
4508 4510
4509 4514
4509 4618
4510 4511
4511 4512
4514 4519
4514 4543
4515 4516
4516 4517
4517 4518
4519 4526
4520 4521
4520 4528
4521 4522
4521 4527
4522 4523
4523 4524
4523 4525
4531 4532
4531 4534
4532 4533
4535 4536
4536 4537
4539 4540
4539 4544
4540 4541
4541 4542
4543 4545
4543 4610
4545 4567
4547 4548
4549 4550
4550 4551
4550 4557
4551 4552
4551 4554
4552 4553
4554 4555
4554 4556
4559 4577
4560 4561
4560 4563
4561 4562
4564 4565
4565 4566
4565 4568
4567 4572
4568 4569
4568 4570
4570 4571
4571 4573
4572 4574
4574 4575
4575 4576
4577 4578
4579 4580
4580 4581
4580 4660
4581 4582
4581 4642
4582 4583
4582 4604
4582 4630
4582 4635
4583 4584
4584 4585
4584 4601
4585 4586
4585 4599
4586 4587
4586 4593
4587 4588
4588 4589
4588 4590
4590 4591
4591 4592
4593 4594
4593 4598
4594 4595
4594 4596
4596 4597
4599 4600
4601 4602
4604 4605
4605 4606
4605 4614
4606 4607
4607 4608
4607 4613
4608 4609
4609 4611
4611 4612
4614 4615
4614 4628
4615 4616
4616 4617
4616 4625
4617 4619
4617 4620
4618 4624
4618 4634
4620 4621
4621 4622
4622 4623
4625 4626
4625 4627
4628 4629
4630 4631
4631 4632
4632 4633
4635 4636
4635 4638
4636 4637
4638 4639
4640 4641
4643 4644
4643 4645
4645 4646
4645 4647
4647 4648
4648 4649
4649 4650
4651 4657
4652 4653
4653 4654
4653 4655
4655 4656
4655 4658
4658 4659
4664 4665
4666 4667
4667 4668
4667 4671
4668 4669
4669 4670
4671 4672
4673 4674
4673 4777
4674 4675
4674 4700
4675 4676
4675 4698
4676 4677
4676 4692
4677 4678
4677 4687
4677 4688
4678 4679
4678 4682
4679 4680
4680 4681
4682 4683
4682 4685
4683 4684
4685 4686
4688 4689
4690 4898
4691 4728
4692 4693
4692 4695
4693 4694
4695 4696
4696 4697
4698 4699
4700 4701
4700 4772
4701 4702
4702 4703
4703 4704
4703 4770
4704 4705
4704 4764
4705 4706
4705 4751
4706 4707
4706 4723
4707 4708
4707 4722
4708 4709
4708 4716
4709 4710
4709 4715
4710 4711
4710 4714
4711 4712
4711 4713
4716 4717
4717 4718
4718 4719
4719 4720
4719 4721
4723 4724
4723 4746
4724 4725
4724 4733
4725 4726
4725 4729
4726 4727
4728 4765
4729 4730
4730 4731
4731 4732
4733 4734
4734 4735
4734 4745
4735 4736
4735 4738
4736 4737
4738 4739
4738 4744
4739 4740
4739 4741
4741 4742
4743 4747
4743 4792
4746 4748
4747 4752
4747 4782
4748 4749
4749 4750
4751 4753
4751 4760
4752 4756
4752 4762
4753 4754
4753 4757
4754 4755
4757 4758
4758 4759
4760 4761
4761 4763
4762 4766
4762 4775
4764 4767
4765 4790
4765 5051
4766 4769
4767 4768
4772 4773
4773 4774
4777 4778
4777 4791
4778 4779
4778 4786
4779 4780
4782 4785
4783 4784
4786 4787
4788 4789
4790 4796
4790 4979
4796 4800
4796 4899
4797 4798
4800 4814
4803 4804
4807 4812
4808 4809
4808 4810
4811 4860
4812 4813
4816 4817
4816 4829
4817 4818
4817 4825
4818 4819
4818 4821
4819 4820
4821 4822
4822 4823
4824 4828
4825 4826
4826 4827
4828 4831
4828 4838
4832 4833
4832 4837
4833 4834
4833 4836
4834 4835
4838 4842
4839 4840
4839 4857
4840 4841
4840 4854
4841 4843
4841 4853
4842 4852
4843 4844
4844 4845
4844 4847
4845 4846
4847 4848
4847 4849
4849 4850
4850 4851
4854 4855
4854 4856
4858 4859
4861 4862
4862 4863
4864 4865
4865 4866
4865 4882
4867 4868
4868 4869
4869 4870
4871 4872
4872 4873
4873 4874
4875 4876
4877 4878
4878 4879
4879 4880
4881 4883
4882 4889
4883 4884
4883 4887
4884 4885
4884 4886
4887 4888
4889 4890
4891 4892
4892 4893
4892 5015
4893 4894
4893 4993
4894 4895
4894 4988
4895 4896
4896 4897
4896 4945
4897 4936
4900 4901
4901 4902
4901 4934
4902 4903
4903 4904
4903 4920
4904 4905
4905 4906
4905 4916
4906 4907
4906 4912
4907 4908
4907 4911
4908 4909
4909 4910
4912 4913
4913 4914
4913 4915
4916 4917
4917 4918
4918 4919
4920 4921
4920 4925
4921 4922
4921 4923
4923 4924
4925 4926
4925 4932
4926 4927
4927 4928
4928 4929
4929 4930
4929 4931
4932 4933
4934 4935
4936 4937
4936 4943
4937 4938
4938 4939
4939 4940
4940 4941
4943 4944
4945 4946
4945 4955
4946 4947
4947 4954
4948 4949
4948 4950
4950 4951
4952 4953
4955 4956
4955 4965
4956 4957
4957 4958
4959 4960
4960 4961
4962 4963
4965 4966
4965 4982
4966 4967
4966 4980
4967 4968
4967 4978
4968 4969
4968 4977
4969 4976
4970 4971
4970 4973
4971 4972
4973 4974
4980 4981
4982 4983
4987 4991
4987 5127
4991 4992
4991 5066
4992 4997
4992 5034
4993 5002
4994 4995
4995 4996
4995 4998
4997 5000
4997 5014
4998 4999
5000 5001
5000 5010
5002 5003
5003 5005
5006 5007
5008 5009
5008 5011
5012 5013
5014 5026
5015 5028
5016 5017
5017 5024
5018 5019
5018 5020
5020 5021
5021 5022
5024 5025
5026 5027
5029 5030
5034 5045
5036 5037
5036 5166
5037 5038
5037 5133
5038 5039
5039 5120
5040 5041
5041 5042
5041 5095
5042 5043
5042 5092
5043 5059
5044 5046
5045 5052
5046 5047
5048 5049
5048 5055
5049 5050
5049 5054
5050 5053
5055 5056
5055 5057
5057 5058
5059 5060
5059 5081
5060 5061
5060 5073
5061 5062
5061 5070
5062 5063
5063 5064
5063 5069
5064 5065
5065 5067
5066 5068
5068 5072
5070 5071
5073 5074
5073 5080
5078 5079
5081 5082
5081 5090
5082 5083
5083 5084
5083 5088
5084 5085
5085 5086
5086 5087
5088 5089
5090 5091
5096 5097
5098 5099
5098 5114
5099 5100
5099 5113
5100 5101
5100 5109
5101 5102
5102 5103
5103 5104
5104 5105
5105 5106
5106 5107
5107 5108
5109 5110
5110 5111
5111 5112
5114 5115
5114 5119
5115 5116
5115 5117
5117 5118
5120 5121
5121 5122
5122 5123
5122 5124
5125 5126
5127 5130
5127 5246
5128 5129
5128 5131
5130 5136
5131 5132
5134 5135
5134 5158
5135 5137
5136 5142
5136 5177
5137 5138
5137 5145
5138 5139
5138 5141
5139 5140
5141 5143
5141 5144
5146 5147
5146 5149
5147 5148
5149 5150
5149 5153
5150 5151
5151 5152
5153 5154
5154 5155
5155 5156
5158 5159
5159 5160
5159 5162
5160 5161
5164 5165
5166 5167
5166 5193
5166 5324
5168 5169
5169 5170
5170 5171
5170 5174
5171 5172
5171 5173
5174 5175
5174 5176
5177 5178
5177 5237
5178 5182
5179 5180
5180 5181
5181 5183
5181 5187
5182 5186
5182 5231
5183 5184
5184 5185
5186 5188
5186 5228
5189 5190
5190 5191
5191 5192
5194 5199
5195 5196
5197 5198
5197 5211
5197 5213
5197 5214
5197 5215
5198 5200
5199 5206
5200 5201
5200 5210
5201 5202
5201 5208
5202 5203
5203 5204
5203 5207
5204 5205
5206 5212
5208 5209
5219 5220
5220 5221
5221 5222
5223 5224
5224 5225
5226 5227
5228 5229
5228 5230
5233 5234
5233 5235
5235 5236
5237 5238
5238 5240
5239 5243
5239 5270
5240 5241
5240 5244
5243 5245
5247 5248
5247 5297
5248 5249
5249 5250
5249 5288
5250 5251
5250 5282
5250 5287
5251 5252
5251 5280
5252 5253
5252 5271
5253 5254
5253 5262
5254 5255
5254 5257
5255 5256
5257 5258
5257 5261
5258 5259
5260 5276
5262 5263
5262 5269
5263 5264
5264 5265
5264 5266
5266 5267
5267 5268
5270 5273
5271 5272
5271 5277
5272 5274
5273 5275
5276 5293
5277 5278
5280 5281
5282 5283
5283 5284
5284 5285
5285 5286
5288 5292
5289 5290
5290 5291
5292 5294
5292 5296
5297 5298
5299 5300
5300 5301
5301 5302
5302 5303
5303 5304
5304 5305
5305 5306
5306 5307
5307 5308
5307 5319
5308 5309
5308 5316
5309 5310
5310 5311
5311 5312
5312 5313
5313 5314
5313 5315
5316 5317
5317 5318
5319 5320
5320 5321
5321 5322
5322 5323
