# Salmonidae clade from the Open Tree of Life; 377 nodes, 376 edges; canonical sorted order
0 1
0 3
2 3
3 5
3 341
3 352
4 352
6 352
7 138
7 211
7 322
8 322
9 322
10 322
11 82
12 322
13 15
14 15
15 326
16 322
17 322
18 322
19 345
20 322
21 322
22 23
23 342
24 335
25 337
26 336
27 322
28 322
29 338
30 330
31 322
32 322
33 322
34 322
35 322
36 322
37 322
38 322
39 322
40 322
41 322
42 322
43 343
44 348
45 322
46 346
47 322
48 339
49 336
50 322
51 322
52 322
53 322
54 322
55 322
56 322
57 322
58 337
59 332
60 327
61 322
62 345
63 322
64 322
65 322
66 322
67 335
68 322
69 322
70 326
71 322
72 333
73 340
74 334
75 322
76 322
77 325
78 322
79 322
80 322
81 322
82 322
83 322
84 338
85 322
86 322
87 322
88 322
89 346
90 322
91 322
92 95
93 347
94 95
95 341
95 347
96 347
97 113
97 118
97 119
97 356
97 357
97 361
98 125
99 127
99 128
99 129
99 364
100 364
101 107
102 107
103 107
104 107
105 107
106 107
107 108
107 109
107 110
107 111
107 112
107 362
114 116
115 116
116 363
117 360
120 360
121 367
122 125
123 125
124 125
125 126
125 357
130 359
131 367
132 133
132 368
134 353
135 138
136 349
137 351
138 349
139 353
140 350
141 190
142 376
143 190
144 190
145 190
146 190
147 190
148 190
149 190
150 190
151 321
152 190
153 190
154 190
155 190
156 190
157 190
158 190
159 190
160 190
161 190
162 190
163 190
164 190
165 190
166 190
167 190
168 190
169 190
170 171
171 190
172 190
173 190
174 190
175 316
176 190
177 190
178 190
179 190
180 190
181 321
182 190
183 190
184 190
185 186
185 320
187 318
188 190
189 190
190 191
190 192
190 193
190 195
190 196
190 197
190 198
190 199
190 200
190 201
190 202
190 208
190 209
190 210
190 316
190 355
194 319
203 205
204 205
205 206
205 207
205 317
211 303
211 375
212 213
213 303
213 341
213 355
213 376
214 313
215 218
216 218
217 218
218 219
218 312
220 369
221 369
222 310
223 369
224 311
225 309
226 369
227 312
228 311
229 369
230 369
231 369
232 369
233 234
233 370
235 369
236 369
237 369
238 369
239 369
240 369
241 369
242 369
243 304
244 314
245 369
246 249
247 249
248 315
249 315
249 369
250 315
251 372
252 369
253 369
254 369
255 258
256 258
257 258
258 314
259 369
260 369
261 372
262 307
263 369
264 369
265 369
266 305
267 369
268 369
269 309
270 369
271 369
272 369
273 369
274 369
275 369
276 277
276 373
278 280
279 280
280 348
281 297
281 303
282 297
283 297
284 285
285 365
286 366
287 297
288 297
289 366
290 297
291 292
292 354
293 297
294 297
295 297
296 297
297 298
297 299
297 301
297 302
297 354
300 358
304 305
304 374
305 306
306 307
306 312
307 308
308 309
308 310
310 311
313 314
313 374
316 317
317 318
318 319
319 320
320 321
322 323
322 348
323 324
323 339
324 325
324 327
325 326
327 328
328 329
328 338
329 330
329 337
330 331
331 332
331 336
332 333
333 334
334 335
339 340
340 342
342 343
343 344
344 345
344 346
349 350
350 351
351 353
354 358
355 356
356 368
357 359
358 365
359 360
361 362
361 367
362 363
363 364
365 366
368 369
369 370
370 371
371 372
371 373
373 374
