# Serpentes clade from the Open Tree of Life; 6054 nodes, 6053 edges; canonical sorted order
0 1
0 6044
2 10
3 10
4 10
5 10
6 10
7 10
8 10
9 10
10 11
10 12
10 13
10 14
10 15
10 5428
16 25
17 25
18 19
19 25
20 25
21 25
22 25
23 25
24 25
25 26
25 27
25 28
25 29
25 30
25 31
25 32
25 33
25 5780
34 38
35 38
36 38
37 38
38 5880
39 5782
40 5782
41 42
42 5779
42 5782
43 47
44 47
45 47
46 47
47 48
47 49
47 5945
50 52
51 52
52 5216
53 58
54 58
55 58
56 58
57 58
58 59
58 60
58 5148
61 62
62 6044
63 64
64 5254
65 85
66 85
67 5955
68 85
69 5954
70 85
71 85
72 5953
73 85
74 5955
75 5954
76 85
77 85
78 85
79 5952
80 85
81 85
82 85
83 85
84 85
85 87
85 89
85 90
85 91
85 92
85 5947
85 5949
86 5953
88 5950
93 94
94 5573
95 98
96 98
97 98
98 99
98 100
98 102
101 5574
102 5536
102 5571
103 105
104 105
105 106
105 5571
107 5574
108 5572
109 1394
109 1576
109 3577
109 4897
109 4904
110 118
111 118
112 118
113 4900
114 118
115 118
116 117
117 4900
118 119
118 120
118 121
118 122
118 4897
118 4900
123 126
123 127
123 130
123 131
123 132
123 5424
123 5425
124 5427
125 5427
128 5426
129 5426
133 5117
133 5508
133 5883
134 136
135 136
136 5275
137 143
138 4973
139 140
140 4971
141 143
142 4971
143 147
143 4969
143 4970
143 4972
144 4972
145 4973
146 4973
148 4970
149 150
149 151
149 5159
152 5329
153 5330
154 5329
155 5329
156 5329
157 5329
158 5329
159 5329
160 5329
161 5329
162 169
163 169
164 169
165 169
166 169
167 169
168 169
169 170
169 171
169 172
169 173
169 174
169 175
169 176
169 177
169 5956
178 179
179 4913
180 183
181 183
182 183
183 184
183 5248
185 186
186 6044
187 188
188 5291
189 237
189 5883
190 222
191 5935
192 222
193 5931
194 222
195 5928
196 5940
197 222
198 222
199 222
200 5943
201 5932
202 222
203 222
204 5938
205 5941
206 5944
207 5933
208 5944
209 222
210 5937
211 5942
212 222
213 5938
214 5942
215 222
216 222
217 222
218 222
219 222
220 222
221 222
222 225
222 226
222 227
222 229
222 230
222 234
222 235
222 236
222 5924
222 5925
223 5933
224 5929
228 5929
231 5937
232 5935
233 5930
237 238
239 244
239 2109
239 2588
239 4048
239 4642
240 244
241 244
242 244
243 244
245 248
245 5832
246 248
247 248
248 249
250 251
251 6044
252 253
252 5501
254 5806
255 256
256 5804
256 5805
257 5805
258 5806
259 5980
260 5981
261 267
262 5977
263 267
264 5978
265 5981
266 267
267 5971
267 5977
267 5981
268 5979
269 5980
270 5324
271 280
272 5324
273 280
274 280
275 280
276 280
277 280
278 280
279 280
280 281
280 5322
280 5323
282 5323
283 284
284 5375
285 286
286 3382
287 5000
288 313
289 313
290 313
291 313
292 313
293 313
294 313
295 5002
296 313
297 313
298 313
299 4999
300 313
301 5001
302 313
303 313
304 313
305 313
306 313
307 313
308 313
309 313
310 313
311 313
312 313
313 314
313 315
313 316
313 317
313 318
313 320
313 321
313 322
313 323
313 324
313 4992
313 4999
319 5002
325 326
326 6044
327 328
328 5043
329 330
330 331
330 6044
332 342
333 342
334 342
335 342
336 342
337 342
338 342
339 342
340 342
341 342
342 343
342 344
342 345
342 4644
346 347
347 348
348 349
348 5080
350 352
351 4978
352 356
352 4954
352 4974
353 4977
354 4976
355 4974
357 4978
358 4976
359 362
360 362
361 362
362 363
363 364
363 5468
365 366
365 367
365 368
365 5794
369 5382
370 5442
371 5389
372 5442
373 5382
374 383
375 383
376 5232
377 383
378 383
379 383
380 383
381 5234
382 5232
383 384
383 5177
383 5232
383 5234
385 5234
386 390
387 390
388 390
389 390
390 391
390 392
390 3382
393 407
394 407
395 5752
396 407
397 5753
398 407
399 5756
400 407
401 407
402 5757
403 407
404 407
405 5753
406 5756
407 408
407 410
407 5747
407 5751
409 5757
411 435
411 2168
411 5316
412 435
413 435
414 435
415 5318
416 5317
417 435
418 435
419 435
420 435
421 435
422 423
423 5319
424 435
425 435
426 435
427 435
428 435
429 5320
430 435
431 435
432 433
433 5320
434 5319
435 436
435 438
435 439
435 440
435 441
435 5317
435 5320
437 438
442 5089
443 5109
444 5089
445 5089
446 5089
447 5089
448 5089
449 5089
450 5089
451 5089
452 5089
453 5089
454 5089
455 5107
456 5089
457 5089
458 5089
459 5089
460 5089
461 5089
462 5089
463 5089
464 5089
465 5116
466 5089
467 5089
468 5089
469 5089
470 5089
471 5089
472 5089
473 5089
474 5089
475 5089
476 5089
477 5113
478 5089
479 5103
480 5089
481 5089
482 5089
483 5110
484 5089
485 5089
486 5089
487 5089
488 5089
489 5089
490 5107
491 5089
492 5089
493 5089
494 5089
495 5101
496 5089
497 5089
498 5089
499 5089
500 5089
501 5089
502 5089
503 5102
504 5089
505 5114
506 5089
507 5115
508 5089
509 5089
510 5089
511 5089
512 5110
513 5089
514 5089
515 5089
516 5089
517 5089
518 5089
519 5089
520 5089
521 5104
522 5089
523 5099
524 5095
525 5089
526 5089
527 5089
528 5089
529 5089
530 5089
531 5089
532 5089
533 5104
534 5089
535 5089
536 5089
537 5089
538 5089
539 5089
540 5089
541 5089
542 5100
543 5089
544 5089
545 5089
546 5089
547 5089
548 5113
549 5096
550 5089
551 5089
552 5115
553 5089
554 5089
555 5112
556 5089
557 5089
558 5089
559 5089
560 5089
561 5089
562 5089
563 5089
564 5089
565 5089
566 5089
567 5089
568 5112
569 5089
570 5106
571 5089
572 5089
573 5089
574 5101
575 5089
576 5089
577 5089
578 5089
579 5089
580 5089
581 5114
582 5089
583 5106
584 5098
585 5244
586 5246
587 5630
588 5629
589 5628
590 5630
591 5629
592 5624
593 594
594 5833
595 596
596 597
596 5395
598 601
598 5531
599 601
600 601
602 603
603 5250
604 605
605 6026
606 608
607 608
608 5523
609 620
610 620
611 5765
612 5763
613 5768
614 5765
615 5771
616 620
617 620
618 620
619 5770
620 5746
620 5759
621 5769
622 5767
623 5771
624 5764
625 5768
626 5759
627 5762
628 640
629 5866
630 5866
631 636
632 636
633 5864
634 636
635 636
636 637
636 640
636 5864
638 640
639 640
640 5839
641 649
642 643
643 5304
644 5303
645 649
646 649
647 649
648 5304
649 650
649 651
649 652
649 653
649 654
649 655
649 5297
649 5303
656 657
656 658
656 4886
659 686
660 686
661 4882
662 4884
663 686
664 686
665 4885
666 686
667 4880
668 4879
669 686
670 686
671 686
672 4880
673 686
674 686
675 686
676 4878
677 686
678 4881
679 686
680 686
681 4883
682 686
683 686
684 686
685 686
686 687
686 688
686 689
686 690
686 691
686 692
686 693
686 695
686 696
686 4878
686 4881
686 6048
694 4885
697 5833
698 699
699 700
699 5020
701 956
701 5784
702 703
702 706
702 707
702 4963
703 704
703 705
708 5639
709 5637
710 5641
711 5641
712 5640
713 5635
714 716
715 716
716 717
716 720
716 5575
716 5634
716 5635
718 5639
719 5634
721 5634
722 5640
723 5795
724 730
725 5795
726 730
727 730
728 730
729 730
730 5794
730 5795
731 736
732 736
733 736
734 736
735 736
736 5612
737 738
738 5305
739 741
740 741
741 5305
742 5578
743 781
744 781
745 781
746 5584
747 5608
748 5607
749 5595
750 5598
751 5578
752 5578
753 5585
754 5605
755 5603
756 5601
757 5606
758 5599
759 5610
760 5588
761 5589
762 5610
763 5583
764 5598
765 5609
766 5584
767 5603
768 5578
769 5601
770 5600
771 5612
772 781
773 5599
774 5590
775 5586
776 5578
777 5578
778 5600
779 5578
780 782
781 5585
781 5586
781 5589
782 783
782 5590
784 5578
785 5602
786 5578
787 5587
788 5579
789 5578
790 5578
791 5588
792 5604
793 5602
794 5578
795 5578
796 5578
797 5578
798 5578
799 5606
800 5578
801 5578
802 825
803 804
803 5256
805 2334
806 808
807 808
808 809
808 810
808 2162
811 816
812 816
813 816
814 816
815 816
816 817
816 818
816 5391
819 820
820 5256
821 822
822 823
822 824
822 5373
825 840
825 5469
826 840
827 5476
828 840
829 5475
830 5473
831 5475
832 5470
833 834
834 5476
835 840
836 840
837 838
838 5473
839 5472
840 841
840 843
840 5470
840 5476
842 5474
844 845
845 5036
846 849
847 849
848 849
849 850
849 5443
851 1875
851 3340
851 5508
851 5779
851 5982
852 853
852 5879
854 902
855 902
856 902
857 902
858 902
859 902
860 902
861 902
862 902
863 902
864 902
865 902
866 902
867 902
868 902
869 902
870 902
871 902
872 902
873 902
874 902
875 902
876 902
877 902
878 902
879 902
880 902
881 902
882 902
883 902
884 902
885 902
886 902
887 902
888 902
889 902
890 902
891 902
892 902
893 902
894 902
895 902
896 902
897 902
898 902
899 902
900 902
901 902
902 903
902 904
902 906
902 907
902 908
902 909
902 910
902 911
902 912
902 913
902 914
902 915
902 916
902 917
904 905
917 3755
917 4903
918 919
918 920
918 5047
921 923
922 923
923 6044
924 5375
925 5375
926 5481
927 5375
928 5375
929 5375
930 5375
931 5375
932 5375
933 934
934 5375
935 5375
936 937
936 5709
938 5837
939 941
940 5837
941 942
941 944
941 5836
941 5837
943 944
944 945
946 5375
947 1540
948 949
948 5524
950 951
951 4962
952 953
953 954
953 5058
955 956
957 958
958 1939
959 965
960 965
961 5750
962 965
963 965
964 965
965 966
965 967
965 5748
965 5749
968 5749
969 5750
970 972
971 972
972 973
973 4888
974 977
975 5745
976 5745
977 978
977 5737
977 5745
979 982
980 982
981 5519
982 984
982 5518
982 5519
983 5519
985 986
986 4913
987 988
988 990
988 992
988 5624
988 5625
989 5625
991 5625
993 995
994 995
995 996
995 997
995 5256
998 999
998 6044
1000 1001
1001 1002
1001 5878
1003 1006
1004 1006
1005 1006
1006 1007
1006 4913
1008 5849
1009 1018
1010 5844
1011 5846
1012 5843
1013 1018
1014 5850
1015 5850
1016 1017
1017 5850
1018 5841
1018 5842
1018 5849
1019 1020
1019 5846
1021 1023
1022 5847
1023 5845
1023 5847
1024 5847
1025 5842
1026 1027
1026 6044
1028 1030
1029 1030
1030 5256
1031 1032
1032 1033
1032 6044
1034 5857
1035 5510
1036 5611
1037 5510
1038 5510
1039 5867
1040 5857
1041 5510
1042 5510
1043 5838
1044 5882
1045 5890
1046 5875
1047 5510
1048 5510
1049 5865
1050 5875
1051 5611
1052 5890
1053 5510
1054 5510
1055 5510
1056 2220
1057 2220
1058 1059
1059 6044
1060 4899
1061 1063
1061 1064
1061 1065
1061 4897
1061 4899
1062 4899
1066 1067
1066 1068
1066 1069
1066 1070
1066 1071
1066 5017
1072 1073
1073 5181
1074 1078
1075 5992
1076 5993
1077 5991
1078 1079
1078 1080
1078 5989
1078 5991
1081 5993
1082 1083
1082 6044
1084 1085
1085 6044
1086 1108
1087 1108
1088 1108
1089 1108
1090 1108
1091 1108
1092 1094
1093 1094
1094 1095
1094 1108
1096 1108
1097 1108
1098 1108
1099 1108
1100 1108
1101 1108
1102 1108
1103 1108
1104 1108
1105 1108
1106 1108
1107 1108
1108 1109
1108 1110
1108 1111
1108 1112
1108 1113
1108 5911
1114 1115
1115 6044
1116 1122
1117 5290
1118 5290
1119 1122
1120 5289
1121 5289
1122 1123
1122 1124
1122 1889
1122 5288
1122 5289
1122 5290
1125 1136
1126 1136
1127 1136
1128 1136
1129 1136
1130 1136
1131 1136
1132 1136
1133 1136
1134 1136
1135 1136
1136 1137
1136 1138
1136 1139
1136 1140
1136 1141
1136 1142
1136 1143
1136 5161
1144 1146
1145 1146
1146 1147
1146 5055
1148 1149
1148 1150
1148 1151
1148 5688
1152 1153
1153 1154
1153 5058
1155 5862
1156 5863
1157 1164
1158 5863
1159 5861
1160 5858
1161 5861
1162 1163
1163 5860
1164 5840
1164 5858
1164 5862
1165 5859
1166 1167
1167 4913
1168 1171
1169 1171
1170 1171
1171 5120
1172 5119
1173 5119
1174 5119
1175 1176
1176 5055
1177 5531
1177 5532
1177 5706
1178 1231
1179 5560
1180 1231
1181 5544
1182 1231
1183 5567
1184 5554
1185 5566
1186 1187
1187 5541
1188 5564
1189 1231
1190 5550
1191 1195
1192 1195
1193 1195
1194 1195
1195 1196
1195 1197
1195 1198
1195 5552
1199 5540
1200 5557
1201 1203
1202 1203
1203 5555
1204 1207
1205 1207
1206 1207
1207 5569
1208 5557
1209 1213
1210 1213
1211 1213
1212 1213
1213 5545
1214 1231
1215 1231
1216 1217
1217 5560
1218 1221
1219 1221
1220 1221
1221 5554
1222 1231
1223 1229
1224 1229
1225 1229
1226 1229
1227 1229
1228 1229
1229 5564
1230 1231
1231 1236
1231 1238
1231 1251
1231 1260
1231 5537
1231 5538
1231 5568
1232 5541
1233 1234
1234 1235
1234 5568
1237 5543
1239 1241
1240 1241
1241 1242
1241 5542
1243 1244
1244 1245
1244 5565
1246 1247
1246 1248
1246 5562
1249 5552
1250 5556
1252 5570
1253 5561
1254 5567
1255 5553
1256 5570
1257 1258
1257 5545
1259 5551
1261 1262
1262 1263
1262 5563
1264 1265
1265 5548
1266 1270
1267 1270
1268 1270
1269 1270
1270 1271
1270 6047
1272 1273
1273 5085
1274 1278
1275 1278
1276 1278
1277 1278
1278 1279
1278 5438
1280 5974
1281 5976
1282 5973
1283 5957
1284 5972
1285 5976
1286 5975
1287 5957
1288 1294
1289 1291
1290 1291
1291 4959
1292 4960
1293 4961
1294 1296
1294 4958
1294 4959
1295 4961
1297 1300
1298 1300
1299 1300
1300 6044
1301 1302
1302 4644
1303 5815
1304 5815
1305 5815
1306 5815
1307 5815
1308 5815
1309 5815
1310 5832
1311 5815
1312 5815
1313 5815
1314 5815
1315 5817
1316 5815
1317 5736
1318 5736
1319 1325
1319 5721
1319 5734
1320 5734
1321 1322
1322 1323
1322 1324
1322 5735
1326 1338
1327 1338
1328 6050
1329 1338
1330 1338
1331 1338
1332 1338
1333 6053
1334 6053
1335 1338
1336 1338
1337 1338
1338 1339
1338 1340
1338 1343
1338 6049
1338 6050
1341 6052
1342 6051
1344 1345
1345 5708
1346 1351
1347 1351
1348 1351
1349 1351
1350 1351
1351 1354
1351 1355
1351 1356
1351 1357
1351 1358
1351 1359
1351 1360
1351 1361
1351 5445
1351 5446
1352 5446
1353 5446
1362 1394
1363 1394
1364 4891
1365 1394
1366 1394
1367 1394
1368 4889
1369 4891
1370 1394
1371 1394
1372 1394
1373 1394
1374 1394
1375 1394
1376 1394
1377 1394
1378 1394
1379 1394
1380 1394
1381 1394
1382 1394
1383 1394
1384 1394
1385 1394
1386 1394
1387 1394
1388 1394
1389 1394
1390 1394
1391 1394
1392 1394
1393 1394
1394 1395
1394 1396
1394 1397
1394 1398
1394 1400
1394 1401
1394 1402
1394 1403
1394 1404
1394 1406
1394 1407
1394 4889
1394 4891
1399 4890
1405 4890
1408 1412
1409 1411
1410 1411
1411 1412
1412 1413
1412 1415
1412 5480
1413 1414
1416 1417
1417 5256
1418 1428
1419 1428
1420 1428
1421 1428
1422 1428
1423 1428
1424 1428
1425 1428
1426 1428
1427 1428
1428 1429
1428 1430
1428 1431
1428 1432
1428 1433
1428 5514
1434 1438
1435 1438
1436 1438
1437 1438
1438 1439
1438 5386
1440 1444
1440 5059
1441 1444
1442 1444
1443 1444
1444 1445
1444 1446
1444 1447
1444 1448
1444 1449
1450 1451
1451 1452
1451 5164
1453 1454
1454 2162
1455 1456
1456 6044
1457 1463
1458 1463
1459 1463
1460 1463
1461 1462
1462 1463
1463 1465
1463 1467
1463 1468
1463 1469
1463 1470
1463 1471
1463 6047
1464 1465
1465 1466
1472 5135
1473 5124
1474 5124
1475 5127
1476 5124
1477 5124
1478 5124
1479 5124
1480 5124
1481 5124
1482 5129
1483 5124
1484 5124
1485 5124
1486 5124
1487 5124
1488 5124
1489 5124
1490 5124
1491 1492
1492 1493
1492 5124
1494 5124
1495 5124
1496 5124
1497 5124
1498 5124
1499 5124
1500 5124
1501 5139
1502 5132
1503 5137
1504 5124
1505 5124
1506 5124
1507 5124
1508 5124
1509 5133
1510 5130
1511 5124
1512 5138
1513 5124
1514 5124
1515 5124
1516 5124
1517 5124
1518 5124
1519 5139
1520 5133
1521 5132
1522 5136
1523 5124
1524 5124
1525 5124
1526 1527
1527 5367
1528 1529
1529 6044
1530 1531
1530 5307
1532 2220
1533 2220
1534 2220
1535 1536
1535 4913
1537 1538
1538 1539
1538 5288
1540 2162
1541 1544
1542 1544
1543 1544
1544 1545
1544 6008
1546 3319
1546 5891
1547 1548
1548 5019
1549 1550
1550 1551
1550 5271
1552 1559
1553 1559
1554 1559
1555 1559
1556 1559
1557 1558
1558 1559
1559 5816
1560 1563
1561 1563
1562 1563
1563 1564
1563 5514
1565 1568
1566 1568
1567 1568
1568 5754
1569 1572
1570 1572
1571 1572
1572 1573
1572 1574
1572 1575
1572 5331
1576 1577
1576 1578
1579 1581
1580 1581
1581 1582
1581 5394
1583 1586
1584 1585
1585 1586
1586 1587
1586 1588
1586 1589
1586 5291
1590 5005
1591 5005
1592 5005
1593 5005
1594 5005
1595 5005
1596 5006
1597 1598
1598 5393
1599 5741
1600 1601
1600 1612
1602 1612
1603 5743
1604 1612
1605 5744
1606 5741
1607 5742
1608 1612
1609 1612
1610 5744
1611 5743
1612 5737
1612 5738
1613 1614
1614 5742
1615 1635
1616 6022
1617 1619
1618 1619
1619 6015
1620 6016
1621 1635
1622 1635
1623 6018
1624 6011
1625 6016
1626 1635
1627 1635
1628 6019
1629 6018
1630 6020
1631 1633
1632 1633
1633 6022
1634 1635
1635 1636
1635 1639
1635 1640
1635 1641
1635 6010
1635 6011
1635 6022
1637 1638
1638 6014
1642 1643
1642 6020
1644 1645
1645 5375
1646 5105
1647 5697
1648 5146
1649 1650
1649 5653
1651 5477
1652 5429
1653 5697
1654 5105
1655 5145
1656 5146
1657 5105
1658 5530
1659 5105
1660 5105
1661 5503
1662 5503
1663 5530
1664 5105
1665 1667
1666 1667
1667 1668
1667 1669
1667 1670
1667 5144
1671 5105
1672 1674
1673 1674
1674 5437
1675 1676
1676 6044
1677 1678
1677 1679
1677 4993
1680 1687
1681 1687
1682 1687
1683 1687
1684 1687
1685 1687
1686 1687
1687 1690
1687 5469
1687 5478
1688 5478
1689 5478
1691 1693
1692 1693
1693 4913
1694 1696
1695 1696
1696 1697
1696 5424
1698 1704
1699 1704
1700 1704
1701 5529
1702 5528
1703 5529
1704 1705
1704 5526
1704 5528
1706 1707
1706 4913
1708 1712
1709 1712
1710 1712
1711 1712
1712 1713
1712 1714
1712 4913
1715 1717
1716 1717
1717 1718
1717 2473
1719 1720
1720 5423
1721 1726
1722 5856
1723 5855
1724 5856
1725 5855
1726 1727
1726 5853
1726 5854
1728 1743
1729 1743
1730 1743
1731 1743
1732 1743
1733 1743
1734 1743
1735 1743
1736 5908
1737 1743
1738 5908
1739 1743
1740 1743
1741 1743
1742 1743
1743 1744
1743 1745
1743 1746
1743 1747
1743 1748
1743 1749
1743 1750
1743 1751
1743 1752
1743 1753
1743 1754
1743 1755
1743 1756
1743 1757
1743 1758
1743 1759
1743 1760
1743 1761
1743 1762
1743 1763
1743 1764
1743 1765
1743 5907
1743 5908
1766 1767
1767 5713
1768 1769
1768 5521
1770 4936
1771 1802
1772 4942
1773 1802
1774 4941
1775 1802
1776 4938
1777 1802
1778 4940
1779 1802
1780 4933
1781 1802
1782 4932
1783 1802
1784 1802
1785 1802
1786 1802
1787 4942
1788 1802
1789 4933
1790 1802
1791 1802
1792 1802
1793 1802
1794 1802
1795 1802
1796 4939
1797 4936
1798 1802
1799 1802
1800 1802
1801 1802
1802 1804
1802 1805
1802 1806
1802 1807
1802 1810
1802 1811
1802 1812
1802 1813
1802 1814
1802 1815
1802 1816
1802 1817
1802 1818
1802 1820
1802 1821
1802 1822
1802 1823
1802 4929
1802 4930
1802 4941
1803 4940
1808 4937
1809 4939
1819 4937
1824 1836
1825 1827
1826 1827
1827 5870
1828 5874
1829 5872
1830 5871
1831 5868
1832 5874
1833 1834
1834 5873
1835 5868
1836 1837
1836 1840
1836 1841
1836 1842
1836 5835
1836 5868
1836 5869
1838 1839
1838 5873
1843 1844
1843 6044
1845 1849
1846 1849
1847 1849
1848 1849
1849 5853
1850 1852
1851 1852
1852 1853
1852 5018
1854 1855
1855 1856
1855 4913
1857 1858
1858 5259
1859 1860
1859 5877
1861 1863
1862 1863
1863 5059
1864 1865
1864 2162
1866 1868
1867 1868
1868 1869
1868 1870
1868 1871
1868 1872
1868 1873
1868 5698
1874 1875
1875 1876
1877 1878
1878 5525
1879 1883
1880 1883
1881 1883
1882 1883
1883 1884
1883 5443
1885 1886
1886 5707
1887 1888
1887 6044
1890 5087
1891 5087
1892 5087
1893 5087
1894 5087
1895 5087
1896 5122
1897 5087
1898 5087
1899 5087
1900 5087
1901 5087
1902 5087
1903 5087
1904 5087
1905 5116
1906 5087
1907 5087
1908 5087
1909 5122
1910 5087
1911 5087
1912 5087
1913 5123
1914 5087
1915 5087
1916 5087
1917 5087
1918 5087
1919 5087
1920 5123
1921 5087
1922 5087
1923 5087
1924 5087
1925 5087
1926 5087
1927 5087
1928 5087
1929 5087
1930 5087
1931 5087
1932 5087
1933 5087
1934 5121
1935 5087
1936 5087
1937 1938
1937 5525
1939 1957
1939 5917
1940 1957
1941 1957
1942 1957
1943 1957
1944 1957
1945 1957
1946 1957
1947 1957
1948 1957
1949 1957
1950 1957
1951 1957
1952 1957
1953 1957
1954 1957
1955 1957
1956 1957
1957 1958
1957 1959
1957 1960
1961 1962
1962 5647
1963 1964
1963 5646
1965 1978
1966 1969
1967 1969
1968 1969
1969 1970
1969 5651
1971 1978
1972 1978
1973 1974
1974 5650
1975 1978
1976 5649
1977 1978
1978 1979
1978 1980
1978 5644
1978 5645
1978 5648
1981 1982
1982 5652
1983 1984
1983 1985
1983 5652
1986 5649
1987 5647
1988 5646
1989 1990
1990 5045
1991 1995
1992 1995
1993 1995
1994 1995
1995 1996
1995 6044
1997 5312
1998 5312
1999 5312
2000 5312
2001 5312
2002 5314
2003 5313
2004 5312
2005 5312
2006 5505
2007 5505
2008 5502
2009 2010
2010 5326
2010 5502
2010 5504
2011 5502
2012 5504
2013 2014
2014 5311
2015 2016
2015 2019
2015 2020
2015 4907
2017 4907
2018 4907
2020 4903
2021 2022
2022 4644
2023 2024
2024 2025
2024 5693
2026 2027
2027 2028
2027 2029
2027 2162
2030 2031
2030 3318
2032 2033
2033 4962
2034 2035
2034 5222
2036 2037
2037 5252
2037 5255
2038 5255
2039 5255
2040 2070
2041 2070
2042 2070
2043 2070
2044 2070
2045 2070
2046 2070
2047 2070
2048 2070
2049 2070
2050 2070
2051 2070
2052 2070
2053 2070
2054 2070
2055 2070
2056 2070
2057 2070
2058 2070
2059 2070
2060 2070
2061 2070
2062 2070
2063 2070
2064 2070
2065 2070
2066 2070
2067 2070
2068 2070
2069 2070
2070 2071
2070 2072
2070 2073
2070 2074
2070 2075
2070 2076
2070 2077
2070 2078
2070 2079
2070 2080
2070 2082
2070 2083
2070 2084
2070 5237
2080 2081
2085 5042
2086 2097
2087 2097
2088 5041
2089 2097
2090 5042
2091 5040
2092 5044
2093 2097
2094 2097
2095 2097
2096 2097
2097 2098
2097 2099
2097 2101
2097 2102
2097 2103
2097 2104
2097 2105
2097 5038
2097 5040
2097 5044
2100 5044
2106 2109
2107 2109
2108 2109
2109 2110
2111 2112
2111 6044
2113 2114
2114 5452
2115 2116
2115 5996
2117 2118
2118 2119
2118 5399
2120 2122
2121 2122
2122 5479
2123 5363
2124 5363
2125 2126
2126 2127
2126 5362
2126 5363
2128 6007
2129 6007
2130 6006
2131 5998
2131 6006
2131 6007
2132 6006
2133 2134
2134 2135
2134 2136
2134 6044
2137 2138
2137 2139
2137 2140
2137 2142
2137 5056
2137 5061
2141 5061
2143 5061
2144 2148
2145 2148
2146 2148
2147 2148
2148 5264
2149 2150
2149 2162
2151 2153
2152 2153
2153 2155
2153 6009
2154 2155
2156 2157
2157 2158
2157 6044
2159 2161
2160 2161
2161 2162
2162 2334
2162 2337
2162 2960
2162 2963
2162 3835
2162 4204
2162 5515
2162 5526
2162 6023
2163 2164
2163 2165
2163 5518
2166 2168
2167 2168
2169 2171
2170 2171
2171 2172
2171 5397
2173 2174
2174 5315
2175 2176
2175 2177
2175 6044
2178 2180
2179 2180
2180 6044
2181 2182
2182 5402
2183 2186
2184 2186
2185 2186
2186 5036
2187 2189
2188 2189
2189 5149
2190 2220
2191 5415
2192 2220
2193 2220
2194 5416
2195 5416
2196 2220
2197 5406
2198 5413
2199 5418
2200 2220
2201 2220
2202 2220
2203 2220
2204 2220
2205 2220
2206 2220
2207 5422
2208 5421
2209 2220
2210 2220
2211 5409
2212 5420
2213 5419
2214 2220
2215 5414
2216 2220
2217 2220
2218 2219
2219 5422
2220 2221
2220 2224
2220 2231
2220 2232
2220 2233
2220 2234
2220 2235
2220 2855
2220 5402
2220 5404
2222 5412
2223 5414
2225 5422
2226 5405
2227 5419
2228 5412
2229 5410
2230 5404
2236 2240
2237 2240
2238 2240
2239 2240
2240 2241
2240 5039
2242 5710
2243 2244
2244 2245
2244 5709
2244 5710
2246 5710
2247 2248
2247 5256
2249 5153
2250 5150
2251 2254
2252 2254
2253 2254
2254 5156
2255 2257
2256 2257
2257 2258
2257 5152
2259 2263
2260 2263
2261 2263
2262 2263
2263 2264
2263 5154
2265 5152
2266 5158
2267 2268
2267 5155
2269 5156
2270 2275
2271 4964
2272 4968
2273 4966
2274 2275
2275 4010
2275 4956
2275 4964
2275 4967
2276 4967
2277 4966
2278 4968
2279 2280
2280 2281
2280 5527
2282 2285
2283 2285
2284 2285
2285 2286
2285 4963
2287 2288
2287 6044
2289 5072
2290 5071
2291 2297
2292 5072
2293 2297
2294 2297
2295 2297
2296 5071
2297 2298
2297 2299
2297 5069
2297 5070
2300 2315
2301 2315
2302 5946
2303 2315
2304 2315
2305 2315
2306 2315
2307 2315
2308 2315
2309 2315
2310 2315
2311 2315
2312 2315
2313 2315
2314 2315
2315 2316
2315 2318
2315 2319
2315 2320
2315 2321
2315 2322
2315 2323
2315 5923
2315 5946
2317 5946
2324 2325
2324 5315
2326 2327
2327 6044
2328 2331
2329 2331
2330 2331
2331 2332
2331 2333
2331 5286
2335 2336
2336 5833
2337 2338
2339 5642
2340 2345
2341 2345
2342 2343
2343 2344
2343 5642
2345 2346
2345 5534
2345 5642
2347 2348
2347 2350
2347 2354
2347 2358
2347 2366
2347 2371
2347 2373
2347 4888
2347 4892
2349 4918
2351 4906
2352 2354
2353 2354
2354 2355
2356 5021
2357 4918
2359 2364
2360 2364
2361 2364
2362 2364
2363 2364
2364 4901
2365 4905
2367 2369
2368 2369
2369 2370
2369 5024
2372 4901
2374 2375
2375 2376
2375 2377
2375 4987
2378 5024
2379 4906
2380 2392
2381 2392
2382 2392
2383 2392
2384 2392
2385 2392
2386 2392
2387 2392
2388 2392
2389 2392
2390 2392
2391 2392
2392 2393
2392 2394
2392 2395
2392 2396
2392 2397
2392 2398
2392 4894
2399 4892
2400 2404
2401 2404
2402 2404
2403 2404
2404 2405
2404 2406
2404 2407
2404 4998
2408 2833
2408 5293
2408 5294
2408 5310
2409 5298
2410 5298
2411 5301
2412 5298
2413 5298
2414 5300
2415 5301
2416 5298
2417 5298
2418 2420
2419 2420
2420 2421
2420 5286
2422 5449
2423 2427
2424 2427
2425 5449
2426 2427
2427 2429
2427 2430
2427 5447
2428 5447
2430 3728
2430 5379
2431 2432
2432 6044
2433 2436
2434 5278
2435 5278
2436 5277
2436 5278
2437 2438
2437 4644
2439 2442
2440 2442
2441 2442
2442 2443
2442 5079
2444 5079
2445 5083
2446 5081
2447 5068
2448 5068
2449 5082
2450 5081
2451 2452
2452 5077
2453 2454
2454 2455
2454 5082
2456 5083
2457 2458
2457 6044
2459 2469
2460 2469
2461 2469
2462 2469
2463 2469
2464 2469
2465 2469
2466 2469
2467 2469
2468 2469
2469 2470
2469 2471
2469 2472
2469 5513
2473 3973
2473 5892
2473 5893
2473 5905
2474 2487
2475 5896
2476 5897
2477 2487
2478 2487
2479 2487
2480 2487
2481 2487
2482 2487
2483 2487
2484 2487
2485 5898
2486 2487
2487 2488
2487 2489
2487 2490
2487 2493
2487 5894
2487 5895
2491 5897
2492 5898
2494 2511
2495 2511
2496 2511
2497 2511
2498 2511
2499 2511
2500 2511
2501 2511
2502 2511
2503 2511
2504 2511
2505 2511
2506 2511
2507 2511
2508 2511
2509 2511
2510 2511
2511 2512
2511 2513
2511 2514
2511 2515
2511 2516
2511 2517
2511 2518
2511 2519
2511 2520
2511 2521
2511 2522
2511 2523
2511 2524
2511 5948
2525 2530
2526 5801
2527 2528
2527 5801
2529 5802
2530 2532
2530 5791
2530 5801
2530 5802
2531 5802
2533 2534
2534 2535
2534 5878
2536 2541
2537 2541
2538 2541
2539 2541
2540 2541
2541 2542
2541 5314
2543 2545
2544 2545
2545 6044
2546 5221
2547 2548
2547 5220
2547 5221
2549 2550
2549 5221
2551 2552
2552 4913
2553 2555
2554 2555
2555 2556
2555 2557
2555 2558
2555 2559
2555 6044
2560 2564
2561 5269
2562 2564
2563 5269
2564 2565
2564 2566
2564 2567
2564 2570
2564 5262
2564 5267
2568 5270
2569 5268
2571 5270
2572 2578
2573 2578
2574 2578
2575 5265
2576 2578
2577 2578
2578 2579
2578 2581
2578 5263
2578 5265
2580 5265
2582 2588
2583 2588
2584 2588
2585 2588
2586 2588
2587 2588
2588 2589
2588 2590
2588 2591
2588 2592
2593 2594
2594 5375
2595 2597
2595 5788
2596 2597
2598 5328
2599 5328
2600 5328
2601 5344
2602 5328
2603 5328
2604 5328
2605 5358
2606 5328
2607 5365
2608 5328
2609 5328
2610 5328
2611 5328
2612 5328
2613 5371
2614 5328
2615 5328
2616 5328
2617 5328
2618 5328
2619 5328
2620 5328
2621 5328
2622 5328
2623 5328
2624 5328
2625 5328
2626 5365
2627 5328
2628 5328
2629 5328
2630 5328
2631 5328
2632 5328
2633 5328
2634 5328
2635 5328
2636 5358
2637 5374
2638 5328
2639 2640
2639 5374
2641 2642
2641 5328
2643 5328
2644 5328
2645 5328
2646 5328
2647 5328
2648 5328
2649 5328
2650 5328
2651 5328
2652 5328
2653 5328
2654 5344
2655 5328
2656 2662
2657 2662
2658 2662
2659 2662
2660 2662
2661 2662
2662 2663
2662 2665
2662 5299
2662 5302
2664 5302
2666 5302
2667 2678
2668 2678
2669 2678
2670 5281
2671 2678
2672 2678
2673 5284
2674 2678
2675 5283
2676 2678
2677 5282
2678 2681
2678 5280
2678 5281
2679 5284
2680 5282
2682 2683
2682 5254
2684 2697
2685 2697
2686 5309
2687 2697
2688 2697
2689 2697
2690 5308
2691 2697
2692 2697
2693 2697
2694 2697
2695 2697
2696 5309
2697 2698
2697 2699
2697 2700
2697 2701
2697 2702
2697 2703
2697 2704
2697 5294
2697 5308
2705 4928
2706 2711
2707 4928
2708 4927
2709 4925
2710 4927
2711 2713
2711 4924
2711 4925
2711 4928
2712 4926
2714 2715
2715 2720
2716 2720
2717 2720
2718 2720
2719 2720
2720 2721
2720 2722
2720 5994
2723 2724
2724 5327
2725 2729
2726 2729
2727 2729
2728 2729
2729 2730
2729 2731
2729 2732
2729 6044
2733 2734
2734 2735
2734 2736
2734 2737
2734 5240
2737 2738
2739 2747
2740 2742
2741 2742
2742 2747
2743 2744
2744 2745
2744 2747
2746 2747
2747 6026
2748 2749
2749 2750
2749 2751
2751 2752
2751 5716
2753 2758
2754 2758
2755 2758
2756 2758
2757 2758
2758 5280
2759 2774
2760 2774
2761 2774
2762 2774
2763 2774
2764 2774
2765 2774
2766 2774
2767 2774
2768 2774
2769 2774
2770 2774
2771 2774
2772 2774
2773 2774
2774 2775
2774 2776
2774 5921
2777 3076
2777 5117
2778 2779
2779 2780
2780 2781
2780 4969
2782 2784
2782 2786
2782 5789
2783 2784
2784 2785
2787 2794
2788 2794
2789 2794
2790 2794
2791 2794
2792 2794
2793 2794
2794 2795
2794 2796
2794 5922
2797 2798
2798 2802
2799 2802
2800 2801
2801 2802
2802 5335
2803 2804
2803 5054
2805 2817
2806 2817
2807 2817
2808 2817
2809 2810
2810 2811
2810 2812
2810 2817
2813 2815
2814 2815
2815 2817
2816 2817
2817 2818
2817 2819
2817 5911
2820 5758
2821 5758
2822 5766
2823 5758
2824 5758
2825 5758
2826 5758
2827 5758
2828 5758
2829 5758
2830 5758
2831 5758
2832 5758
2833 2834
2833 2835
2836 2838
2837 2838
2838 2839
2838 2840
2838 2841
2838 6044
2842 2844
2843 2844
2844 2845
2844 2846
2844 2847
2844 4692
2848 2852
2849 2852
2850 2852
2851 2852
2852 2853
2852 2854
2852 5256
2856 2857
2857 5381
2858 2859
2859 5285
2860 2861
2861 5482
2862 5485
2863 2864
2863 2927
2865 5495
2866 2927
2867 2927
2868 2927
2869 5498
2870 2927
2871 2927
2872 2927
2873 5497
2874 2927
2875 2927
2876 2927
2877 2927
2878 2927
2879 2927
2880 2927
2881 5484
2882 5492
2883 2927
2884 2885
2885 5486
2886 2887
2887 5489
2888 2927
2889 2927
2890 2927
2891 2892
2891 2927
2893 2927
2894 2927
2895 2927
2896 5497
2897 2927
2898 2899
2899 5490
2900 2927
2901 5495
2902 2927
2903 2927
2904 2927
2905 2927
2906 2908
2907 2908
2908 5491
2909 2927
2910 2927
2911 2927
2912 2927
2913 2927
2914 2927
2915 2916
2916 5489
2917 2927
2918 2927
2919 2927
2920 2927
2921 2927
2922 2927
2923 2927
2924 2927
2925 2927
2926 2927
2927 2928
2927 2929
2927 2930
2927 2931
2927 2932
2927 2933
2927 2934
2927 2936
2927 2938
2927 2939
2927 2940
2927 2941
2927 2942
2927 2943
2927 2944
2927 2946
2927 2947
2927 2948
2927 2949
2927 2951
2927 2953
2927 2955
2927 5483
2927 5484
2927 5487
2935 5486
2937 5498
2945 5496
2950 5491
2952 2953
2953 2954
2956 2958
2957 2958
2958 2959
2959 5367
2960 2961
2962 2963
2964 2968
2965 2968
2966 2968
2967 5916
2968 5915
2968 5916
2969 5916
2970 2973
2971 5632
2972 5632
2973 5631
2973 5632
2974 2975
2975 5256
2976 2977
2977 4794
2978 2984
2979 5719
2980 5718
2981 2984
2982 2984
2983 5720
2984 5716
2984 5717
2984 5720
2985 2986
2986 2987
2986 5720
2988 5719
2989 5717
2990 2991
2990 6025
2992 5803
2993 5808
2994 5807
2995 5803
2996 2999
2997 2999
2998 2999
2999 3000
2999 3001
2999 5808
3002 5804
3003 3004
3004 6044
3005 3007
3006 3007
3007 3008
3007 5019
3009 5903
3010 3023
3011 3023
3012 5902
3013 5904
3014 3023
3015 3023
3016 3023
3017 3023
3018 3023
3019 5900
3020 5903
3021 3023
3022 3023
3023 3024
3023 3025
3023 3027
3023 3028
3023 5893
3023 5900
3026 5904
3029 3030
3030 3031
3030 5522
3032 3034
3033 3034
3034 5527
3035 3063
3036 3063
3037 3038
3038 5462
3039 5461
3040 3063
3041 5457
3042 5465
3043 3063
3044 3063
3045 3063
3046 3063
3047 3048
3048 5461
3049 3063
3050 5464
3051 5456
3052 5466
3053 5462
3054 3063
3055 5459
3056 5465
3057 3058
3058 3059
3058 3063
3060 5457
3061 5460
3062 5458
3063 3064
3063 3066
3063 3067
3063 3068
3063 3069
3063 3070
3063 3071
3063 3073
3063 3074
3063 5452
3063 5453
3063 5463
3065 5458
3072 5467
3075 5467
3076 3077
3078 3082
3079 3082
3080 3082
3081 3082
3082 3083
3082 5894
3084 3087
3085 3087
3086 3087
3087 3088
3087 3089
3087 3090
3087 5253
3091 3092
3091 3093
3091 3094
3091 3095
3091 3096
3091 3097
3091 3098
3091 3099
3091 3104
3091 3105
3091 3106
3091 3107
3091 3108
3091 3109
3091 3112
3091 3113
3091 3114
3091 3117
3091 5180
3091 5224
3100 3104
3101 3104
3102 3104
3103 3104
3110 3111
3111 5224
3115 3116
3115 5224
3118 3119
3119 5390
3120 3134
3121 3122
3122 3134
3123 3134
3124 5192
3125 3127
3126 3127
3127 3128
3127 5188
3129 3130
3130 3131
3130 5189
3132 5192
3133 5190
3134 3135
3134 5184
3134 5186
3134 5192
3136 3137
3136 3138
3136 5187
3139 3140
3139 3141
3139 5190
3142 5187
3143 3144
3143 3145
3143 3146
3143 5140
3147 3148
3148 3150
3148 5398
3149 3150
3150 3151
3152 3153
3152 5074
3154 3155
3154 5375
3156 3211
3157 3211
3158 3211
3159 3211
3160 3211
3161 3211
3162 3211
3163 6042
3164 6039
3165 3211
3166 3211
3167 3211
3168 3211
3169 3211
3170 3211
3171 6040
3172 6030
3173 3211
3174 6034
3175 3211
3176 6038
3177 3211
3178 3211
3179 3211
3180 3211
3181 3211
3182 3211
3183 3211
3184 3211
3185 6041
3186 3211
3187 3211
3188 3211
3189 3211
3190 3211
3191 3211
3192 3211
3193 3211
3194 3211
3195 3211
3196 3211
3197 6032
3198 3211
3199 3211
3200 3211
3201 3211
3202 3211
3203 3211
3204 3211
3205 3211
3206 3211
3207 3211
3208 6041
3209 6036
3210 3211
3211 3212
3211 3214
3211 3215
3211 3216
3211 3217
3211 3218
3211 3219
3211 3220
3211 3221
3211 3228
3211 3229
3211 3230
3211 3231
3211 3232
3211 3233
3211 3234
3211 3235
3211 6027
3211 6028
3211 6042
3213 6035
3222 6032
3223 6043
3224 6039
3225 6043
3226 6034
3227 6035
3236 3238
3237 3238
3238 3239
3238 4913
3240 3241
3240 5120
3242 3243
3243 3244
3243 5507
3245 3246
3246 5480
3247 3248
3247 3249
3247 3250
3247 5631
3251 3270
3252 3270
3253 3270
3254 3270
3255 3270
3256 5229
3257 3270
3258 3270
3259 3270
3260 3270
3261 3270
3262 3270
3263 3270
3264 3270
3265 5228
3266 5229
3267 3270
3268 3270
3269 3270
3270 3271
3270 3272
3270 3273
3270 3274
3270 3275
3270 3276
3270 3277
3270 5178
3270 5228
3278 3280
3278 5060
3279 3280
3281 3282
3281 6010
3283 5643
3284 5643
3285 5658
3286 5655
3287 5658
3288 5657
3289 3292
3290 3292
3291 3292
3292 3293
3292 5511
3294 3295
3295 3296
3295 3298
3297 3298
3298 5334
3299 5028
3300 5012
3301 5012
3302 5014
3303 5028
3304 5030
3305 5012
3306 5012
3307 5031
3308 5012
3309 5026
3310 5031
3311 5029
3312 3313
3313 3315
3313 3317
3313 5387
3314 3315
3315 3316
3318 5891
3319 3320
3321 3322
3322 6044
3323 3324
3324 5766
3325 6004
3326 5987
3327 5983
3328 3334
3329 3330
3330 5968
3331 3332
3332 3333
3332 5987
3334 3335
3334 5914
3334 5968
3334 5984
3336 5983
3337 6004
3338 5984
3339 3340
3340 3341
3342 3343
3343 6044
3344 3345
3345 5423
3346 3347
3347 6044
3348 3349
3348 5025
3350 3351
3351 5375
3352 3353
3353 6044
3354 3355
3355 5256
3356 3358
3357 3358
3358 5277
3359 5440
3360 5440
3361 5440
3362 5440
3363 5440
3364 5441
3365 3366
3365 6044
3367 3378
3368 5778
3369 5777
3370 5778
3371 5776
3372 3378
3373 5775
3374 5775
3375 3378
3376 3378
3377 5777
3378 3379
3378 3380
3378 3381
3378 3382
3378 5773
3382 5772
3383 3384
3384 5397
3385 3386
3385 4795
3387 3399
3388 3399
3389 3399
3390 3399
3391 4996
3392 4997
3393 3399
3394 4996
3395 3399
3396 4994
3397 3399
3398 3399
3399 3400
3399 3402
3399 3403
3399 4993
3399 4994
3399 4997
3401 4997
3404 4990
3405 4991
3406 3421
3407 4981
3408 3421
3409 4986
3410 3421
3411 3421
3412 3421
3413 4981
3414 3421
3415 3421
3416 4983
3417 4988
3418 3420
3419 3420
3420 4985
3421 3423
3421 3425
3421 3426
3421 3428
3421 4980
3421 4981
3421 4982
3422 4991
3424 4990
3427 4986
3429 4988
3430 5235
3431 5225
3432 5230
3433 5225
3434 5225
3435 5249
3436 5231
3437 5225
3438 5266
3439 5225
3440 5225
3441 5225
3442 3444
3443 3444
3444 5266
3445 3447
3446 3447
3447 5233
3448 5225
3449 5225
3450 5225
3451 5225
3452 5225
3453 3454
3453 5235
3455 5249
3456 3458
3457 3458
3458 3459
3458 5025
3460 3462
3461 3462
3462 3463
3462 3464
3462 5259
3465 3466
3465 3467
3465 3468
3465 3469
3465 6044
3470 3472
3471 3472
3472 5988
3473 3474
3473 5517
3475 3481
3476 3481
3477 3481
3478 3481
3479 3481
3480 3481
3481 3482
3481 3483
3481 6031
3484 3486
3485 3486
3486 3494
3487 3489
3488 3489
3489 6021
3490 3493
3491 3493
3492 3493
3493 6024
3494 5914
3494 6017
3495 6031
3496 6017
3497 3500
3498 3500
3499 3500
3500 3501
3500 5172
3502 3520
3503 3520
3504 3520
3505 6002
3506 3520
3507 6005
3508 3520
3509 3520
3510 6005
3511 3520
3512 3520
3513 3520
3514 3517
3515 3517
3516 3517
3517 3518
3517 6002
3519 3520
3520 3523
3520 3524
3520 3525
3520 3526
3520 3527
3520 3528
3520 3529
3520 5999
3520 6000
3520 6005
3521 6003
3522 6003
3530 6001
3531 3532
3532 3533
3532 4692
3534 3536
3535 3536
3536 3537
3536 4692
3538 3539
3538 4913
3540 3542
3541 3542
3542 3543
3542 5161
3544 3545
3545 6044
3546 3548
3546 3549
3546 3550
3546 3551
3546 3552
3546 3556
3546 3557
3546 3558
3546 3559
3546 3560
3546 3561
3546 3562
3546 3563
3546 5322
3546 5325
3547 5325
3553 5325
3554 3556
3555 3556
3564 5619
3565 5622
3566 5622
3567 3568
3568 3569
3568 5619
3570 5617
3571 5621
3572 3574
3572 5615
3572 5616
3572 5621
3573 5618
3575 5616
3576 3577
3578 3579
3578 5748
3580 3591
3581 3591
3582 3591
3583 3591
3584 3591
3585 3586
3586 5370
3587 5369
3588 3591
3589 5370
3590 3591
3591 3592
3591 3593
3591 3594
3591 3595
3591 3596
3591 3597
3591 5333
3591 5368
3598 5368
3599 3610
3600 5666
3601 5665
3602 5664
3603 5662
3604 3610
3605 5667
3606 5668
3607 5659
3608 5663
3609 5664
3610 3613
3610 5656
3610 5659
3610 5668
3611 5668
3612 5662
3614 5667
3615 3616
3616 3617
3616 3618
3616 5373
3619 5334
3619 5335
3619 5337
3620 3642
3621 3642
3622 5339
3623 3642
3624 5354
3625 3642
3626 5360
3627 5359
3628 3629
3628 3642
3630 3642
3631 5356
3632 5357
3633 3642
3634 5350
3635 5346
3636 5360
3637 3642
3638 5351
3639 3642
3640 5357
3641 5353
3642 3647
3642 3661
3642 5337
3642 5338
3642 5359
3643 3644
3644 3645
3644 5351
3646 5343
3648 3649
3648 5343
3650 5348
3651 3652
3652 3653
3652 3654
3652 5342
3655 5349
3656 3657
3657 5352
3658 5353
3659 5354
3660 5355
3662 3667
3663 3664
3664 3667
3665 3667
3666 3667
3667 3670
3667 5362
3667 5364
3668 3669
3669 5364
3671 5366
3672 3673
3672 5366
3674 3678
3675 3678
3676 3678
3677 3678
3678 3679
3678 3680
3678 4921
3681 3683
3681 3829
3681 5372
3682 3683
3684 5431
3685 5431
3686 3689
3687 5432
3688 5433
3689 3690
3689 3692
3689 3693
3689 3694
3689 5428
3689 5430
3691 5433
3695 3696
3696 3697
3696 5080
3698 5023
3699 3703
3700 3703
3701 3703
3702 5023
3703 3704
3703 5022
3703 5023
3705 3708
3706 3708
3707 3708
3708 3709
3708 5295
3710 3711
3711 6044
3712 3713
3713 5713
3713 5714
3714 5714
3715 5714
3716 3717
3716 3718
3716 5039
3719 3720
3719 5522
3721 3722
3722 5703
3723 3725
3724 3725
3725 5375
3726 3727
3727 6044
3728 3729
3728 3730
3731 3732
3732 5158
3733 3742
3734 3742
3735 3742
3736 3742
3737 3742
3738 3742
3739 3742
3740 3742
3741 3742
3742 3743
3742 5387
3743 3744
3745 3746
3746 4692
3747 3755
3748 3755
3749 3755
3750 3755
3751 3755
3752 3755
3753 3755
3754 3755
3755 3756
3755 3757
3755 3758
3755 3759
3755 3760
3755 3761
3755 3762
3763 3764
3763 5053
3765 3766
3765 5822
3767 3768
3767 6044
3769 3774
3770 3774
3771 3774
3772 5173
3773 5173
3774 3775
3774 3776
3774 3778
3774 5173
3776 3777
3778 5172
3779 3788
3780 3788
3781 3788
3782 3788
3783 3788
3784 3788
3785 3788
3786 3788
3787 3788
3788 3789
3788 3790
3788 3791
3788 5264
3792 4979
3793 4979
3794 3795
3795 4920
3795 4979
3796 3797
3796 3798
3796 3799
3796 3800
3796 3802
3796 3803
3796 3805
3796 3806
3796 3807
3796 5185
3796 5191
3801 5191
3804 5191
3808 3809
3809 5052
3810 5812
3811 5811
3812 3821
3813 5813
3814 5813
3815 3821
3816 3821
3817 3821
3818 3819
3819 5811
3820 3821
3821 3822
3821 3823
3821 3824
3821 3827
3821 5809
3825 3826
3825 5812
3827 5788
3827 5789
3828 3829
3830 3832
3831 3832
3832 6044
3833 3835
3834 3835
3836 3837
3837 4644
3838 3858
3839 3858
3840 3858
3841 3858
3842 3858
3843 3858
3844 3858
3845 3858
3846 3858
3847 3858
3848 3858
3849 3858
3850 3858
3851 3858
3852 3858
3853 3858
3854 3858
3855 3858
3856 3858
3857 3858
3858 3859
3858 3860
3858 3861
3858 3862
3858 5945
3863 5194
3864 5193
3865 3876
3866 3876
3867 3876
3868 3876
3869 3876
3870 3876
3871 3876
3872 3876
3873 3876
3874 3876
3875 3876
3876 3877
3876 5913
3878 3895
3879 3895
3880 3895
3881 3895
3882 3895
3883 3895
3884 3895
3885 3895
3886 3895
3887 3895
3888 3895
3889 3895
3890 3895
3891 3895
3892 3895
3893 3895
3894 5251
3895 3896
3895 3897
3895 3898
3895 3899
3895 5250
3895 5251
3900 3902
3901 3902
3902 3903
3902 5251
3904 3907
3905 3907
3906 3907
3907 6044
3908 3909
3909 5022
3910 3925
3911 3925
3912 3925
3913 3925
3914 3925
3915 3925
3916 3925
3917 3925
3918 3925
3919 3925
3920 3925
3921 3925
3922 3925
3923 3925
3924 3925
3925 3926
3925 3927
3925 3928
3925 3929
3925 3930
3925 3931
3925 5160
3932 3933
3933 6044
3934 3945
3935 3945
3936 3945
3937 3945
3938 3945
3939 3945
3940 3945
3941 3945
3942 3945
3943 3945
3944 3945
3945 3946
3945 3947
3945 3948
3945 3949
3945 3950
3945 3951
3945 3952
3945 3953
3945 4913
3954 3955
3955 4913
3956 3958
3957 3958
3958 6044
3959 3960
3959 3961
3959 3962
3959 3963
3959 5335
3964 3966
3965 3966
3966 5654
3967 3970
3968 3969
3968 3970
3970 5073
3971 3973
3972 3973
3974 5828
3975 5826
3976 5829
3977 5829
3978 5821
3979 5821
3980 5825
3981 5821
3982 5824
3983 5827
3984 5823
3985 5824
3986 5821
3987 5821
3988 5821
3989 5821
3990 5821
3991 5821
3992 5821
3993 5821
3994 3995
3995 5438
3996 4000
3997 4000
3998 4000
3999 4000
4000 4001
4000 4002
4000 4003
4000 5948
4004 4008
4005 4008
4006 4008
4007 4008
4008 4009
4008 6044
4011 4013
4012 4013
4013 4014
4013 5013
4015 4016
4015 5375
4017 4018
4017 4019
4017 4020
4017 4021
4017 4022
4017 4023
4017 4024
4017 4025
4017 5986
4026 4027
4027 4028
4027 4029
4029 5880
4030 4033
4031 4033
4032 4033
4033 4034
4033 4035
4033 4036
4033 4917
4037 4038
4038 4039
4038 4082
4040 4041
4041 4042
4041 6027
4043 4044
4044 6044
4045 4046
4046 4047
4046 5881
4048 4876
4049 4052
4050 4052
4051 4052
4052 4053
4052 4054
4052 5907
4055 5142
4056 5125
4057 5125
4058 5125
4059 5125
4060 5143
4061 5125
4062 5125
4063 5125
4064 5125
4065 5125
4066 5125
4067 5125
4068 5125
4069 4070
4070 5143
4071 5140
4072 5125
4073 5125
4074 5125
4075 5125
4076 5125
4077 4080
4078 4080
4079 4080
4080 4081
4080 5137
4082 4090
4082 4902
4083 4910
4084 4090
4085 4086
4086 4909
4087 4909
4088 4090
4089 4090
4090 4091
4090 4908
4090 4910
4092 4910
4093 4908
4094 5798
4095 5796
4096 5799
4097 5800
4098 5800
4099 5792
4100 5797
4101 4102
4101 6044
4103 4108
4104 4108
4105 4108
4106 4108
4107 4108
4108 5391
4109 4118
4110 4112
4111 4112
4112 4113
4112 4118
4114 5500
4115 4116
4116 4117
4116 5500
4118 4119
4118 5483
4118 5500
4120 4122
4121 5227
4122 4125
4122 4126
4122 5179
4122 5227
4123 4124
4123 5227
4127 4132
4128 5032
4129 5032
4130 4132
4131 5033
4132 4134
4132 5011
4132 5032
4132 5033
4133 5033
4135 4137
4136 4137
4137 4142
4138 4140
4139 4140
4140 4141
4140 4142
4142 4143
4142 5537
4144 4145
4145 6044
4146 4150
4147 4150
4148 4150
4149 5633
4150 4152
4150 5626
4150 5633
4151 5633
4153 4154
4153 5007
4155 4161
4156 4161
4157 4161
4158 4161
4159 4161
4160 4161
4161 5999
4162 4163
4162 4164
4162 5816
4165 4184
4166 4184
4167 4184
4168 4184
4169 4184
4170 4184
4171 4184
4172 4184
4173 4184
4174 4184
4175 4184
4176 4184
4177 4184
4178 4184
4179 4184
4180 4184
4181 4184
4182 4184
4183 4184
4184 4185
4184 4186
4184 6044
4187 4189
4188 4189
4189 5654
4190 4191
4191 6044
4192 4194
4193 4194
4194 5781
4195 4198
4196 4198
4197 4198
4198 4199
4198 4200
4198 5222
4201 4202
4202 5521
4203 4204
4205 4206
4205 4644
4207 5439
4208 5439
4209 5439
4210 5441
4211 4213
4212 4213
4213 6044
4214 4215
4215 4216
4215 5703
4217 5169
4218 5168
4219 5163
4220 5167
4221 5167
4222 5169
4223 5163
4224 5163
4225 5168
4226 4231
4227 4231
4228 4231
4229 4231
4230 4231
4231 4232
4231 4233
4231 4234
4231 5053
4235 5006
4236 5004
4237 5008
4238 5004
4239 5008
4240 5004
4241 5004
4242 5004
4243 5004
4244 4245
4245 5063
4246 4286
4247 4286
4248 4286
4249 4286
4250 4286
4251 4286
4252 4286
4253 4286
4254 4286
4255 4286
4256 4286
4257 4286
4258 4286
4259 4286
4260 4286
4261 4286
4262 4286
4263 4286
4264 4286
4265 4286
4266 4286
4267 4286
4268 4286
4269 4286
4270 4286
4271 4286
4272 4286
4273 4286
4274 4286
4275 4286
4276 4286
4277 4286
4278 4286
4279 4286
4280 4286
4281 4286
4282 4286
4283 4286
4284 4286
4285 4286
4286 4287
4286 4288
4286 4289
4286 4290
4286 4292
4286 4293
4286 4294
4286 4295
4286 4296
4286 4297
4286 4298
4286 4299
4286 4300
4286 4301
4286 4302
4286 4303
4286 4304
4286 4305
4286 4306
4286 4307
4286 4308
4286 4309
4286 4310
4286 4311
4286 4312
4286 4313
4286 4314
4286 4315
4286 4316
4286 5910
4290 4291
4317 4318
4317 6044
4319 4331
4320 4331
4321 4324
4322 4324
4323 4324
4324 4325
4324 4331
4326 4331
4327 4331
4328 4331
4329 4331
4330 4331
4331 4332
4331 4333
4331 4334
4331 4335
4331 4336
4331 4337
4331 6046
4338 4339
4339 4340
4339 4341
4339 5819
4342 4345
4343 4345
4344 4345
4345 5915
4346 4347
4346 6044
4348 4349
4349 5501
4350 4364
4351 4364
4352 4364
4353 4364
4354 4364
4355 4364
4356 4364
4357 4364
4358 4364
4359 4364
4360 5050
4361 5050
4362 4364
4363 4364
4364 4365
4364 4366
4364 4367
4364 4368
4364 4369
4364 4371
4364 4373
4364 5048
4364 5049
4370 5051
4372 5051
4374 5195
4375 5195
4376 5208
4377 5195
4378 5205
4379 5206
4380 5209
4381 5195
4382 5207
4383 4385
4384 4385
4385 5198
4386 4387
4386 5204
4388 5200
4389 5195
4390 5215
4391 5209
4392 5208
4393 5215
4394 5201
4395 5195
4396 5195
4397 5195
4398 5200
4399 5217
4400 5214
4401 5195
4402 5202
4403 5195
4404 5219
4405 5195
4406 5206
4407 5195
4408 5195
4409 5210
4410 5219
4411 5195
4412 5213
4413 4414
4414 4415
4414 4416
4414 5218
4417 5214
4418 5195
4419 4421
4420 4421
4421 4422
4421 4423
4421 5217
4424 5195
4425 5274
4426 4430
4427 5273
4428 5274
4429 4430
4430 5271
4430 5272
4431 5273
4432 4435
4433 4435
4434 4435
4435 5307
4436 4437
4437 4913
4437 5170
4438 5170
4439 5170
4440 4443
4441 4443
4442 4443
4443 4444
4443 5306
4445 4446
4445 4447
4445 4448
4445 5048
4449 5375
4450 5375
4451 5375
4452 5375
4453 5375
4454 5444
4455 5375
4456 5375
4457 5375
4458 5445
4459 5375
4460 5375
4461 4462
4462 4463
4462 6049
4464 4469
4465 4469
4466 4469
4467 4469
4468 4469
4469 4470
4469 4471
4469 5237
4472 4474
4473 4474
4474 5885
4475 5066
4476 5149
4477 5066
4478 5067
4479 4487
4480 4487
4481 4487
4482 4487
4483 4487
4484 4487
4485 4487
4486 4487
4487 4488
4487 5905
4489 4500
4490 4500
4491 4500
4492 4500
4493 4500
4494 4500
4495 4500
4496 4500
4497 4500
4498 4500
4499 4500
4500 4501
4500 4502
4500 5913
4503 5685
4504 5686
4505 5532
4506 5705
4507 5532
4508 5687
4509 5532
4510 5689
4511 5683
4512 5696
4513 5655
4514 5702
4515 5679
4516 5694
4517 5532
4518 5683
4519 5680
4520 5532
4521 5532
4522 5681
4523 5701
4524 5695
4525 5696
4526 5675
4527 5532
4528 5532
4529 5692
4530 5532
4531 5532
4532 5692
4533 5704
4534 5689
4535 5532
4536 4538
4537 4538
4538 5691
4539 5699
4540 5684
4541 5674
4542 4543
4542 5679
4544 5532
4545 5699
4546 5690
4547 5702
4548 5678
4549 5681
4550 5677
4551 5705
4552 5676
4553 4555
4554 4555
4555 4556
4555 4557
4555 4558
4555 4559
4555 5157
4560 4563
4561 4563
4562 4563
4563 4564
4563 4565
4563 4566
4563 4567
4563 5988
4568 4569
4569 4570
4569 5398
4571 4572
4572 5194
4573 4576
4574 4576
4575 4576
4576 4577
4576 4578
4576 4579
4576 4580
4576 5141
4581 4582
4581 4583
4581 5034
4584 4585
4585 4586
4585 4587
4585 4588
4585 5708
4589 4601
4590 4601
4591 4601
4592 4601
4593 4601
4594 4601
4595 4601
4596 4601
4597 4601
4598 4601
4599 4601
4600 4601
4601 4602
4601 4603
4601 4604
4601 4605
4601 4606
4601 6044
4607 4628
4608 4628
4609 4628
4610 4628
4611 4628
4612 4628
4613 5888
4614 4628
4615 4628
4616 4628
4617 4618
4618 5889
4619 5889
4620 4628
4621 4628
4622 4628
4623 4628
4624 5888
4625 4628
4626 4628
4627 4628
4628 4630
4628 4631
4628 4632
4628 4633
4628 4634
4628 4635
4628 4636
4628 4637
4628 4638
4628 4639
4628 4641
4628 5885
4628 5886
4628 5889
4629 5887
4640 5887
4642 4643
4644 4853
4644 5917
4644 5918
4645 5970
4646 5958
4647 5958
4648 5967
4649 5958
4650 5958
4651 5958
4652 5958
4653 5958
4654 5962
4655 5958
4656 5958
4657 5958
4658 5958
4659 5969
4660 5958
4661 5958
4662 5963
4663 5958
4664 5958
4665 5958
4666 5958
4667 5958
4668 5958
4669 5958
4670 5958
4671 5958
4672 5958
4673 5966
4674 5958
4675 5964
4676 5958
4677 5965
4678 5970
4679 5961
4680 5958
4681 5964
4682 5958
4683 4684
4684 4685
4684 5877
4686 4688
4687 4953
4688 4923
4688 4953
4689 4953
4690 4691
4690 4913
4692 5817
4692 5818
4693 5818
4694 5818
4695 5818
4696 5818
4697 5818
4698 5820
4699 5818
4700 5818
4701 5818
4702 5818
4703 5818
4704 5818
4705 5830
4706 5830
4707 4709
4708 4709
4709 5831
4710 5818
4711 5818
4712 5818
4713 5818
4714 5818
4715 5818
4716 5818
4717 5818
4718 5831
4719 5818
4720 5818
4721 5818
4722 5818
4723 5818
4724 5818
4725 4732
4726 4732
4727 4732
4728 4732
4729 4732
4730 4732
4731 4732
4732 4733
4732 4913
4734 4737
4735 4737
4736 4737
4737 4738
4737 4739
4737 4740
4737 5390
4741 4776
4742 4746
4743 4746
4744 4746
4745 4746
4746 4747
4746 4776
4748 5726
4749 4753
4750 4753
4751 4753
4752 4753
4753 4754
4753 5733
4755 5725
4756 4759
4757 4759
4758 4759
4759 4760
4759 5725
4761 4776
4762 4776
4763 4776
4764 5731
4765 4766
4766 5729
4767 4776
4768 4776
4769 5732
4770 5733
4771 5731
4772 4776
4773 4776
4774 4776
4775 5732
4776 4777
4776 4782
4776 4785
4776 4786
4776 4793
4776 5721
4776 5722
4778 4779
4778 4780
4778 4781
4778 5730
4783 4784
4783 5724
4787 4790
4788 4790
4789 4790
4790 4791
4790 4792
4790 5728
4794 4795
4794 5531
4794 5990
4795 5711
4795 5746
4796 4797
4796 6044
4798 4799
4799 6044
4800 4802
4801 4802
4802 5468
4803 4805
4804 4805
4805 6044
4806 4810
4807 4810
4808 4810
4809 4810
4810 4811
4810 4812
4810 5330
4813 5246
4814 5242
4815 5242
4816 5247
4817 5242
4818 5247
4819 5245
4820 5242
4821 5242
4822 5242
4823 5242
4824 5248
4825 4826
4826 5781
4827 4946
4828 4948
4829 4946
4830 4950
4831 4952
4832 4947
4833 4944
4834 4836
4834 4929
4834 4944
4834 4951
4835 4950
4837 4949
4838 4951
4839 4952
4840 4841
4840 5787
4841 4842
4841 4843
4844 4845
4845 4846
4845 5783
4847 4848
4847 4849
4847 4850
4847 5035
4851 4853
4852 4853
4854 4855
4855 4856
4855 4857
4855 4858
4855 5920
4859 4860
4859 6044
4861 4862
4862 4863
4862 4864
4862 5772
4865 4866
4866 4867
4866 4870
4868 5238
4869 5238
4870 5118
4870 5147
4871 5147
4872 5171
4873 5171
4874 4875
4875 5815
4876 5117
4876 5892
4877 4895
4877 4911
4877 6044
4878 4879
4879 4880
4881 4882
4882 4883
4883 4884
4884 4885
4886 4887
4886 5899
4887 4888
4887 5073
4889 4890
4892 4893
4893 4894
4893 4987
4894 4896
4895 4902
4895 4904
4896 4898
4896 4918
4898 4901
4898 4905
4902 4903
4904 4943
4905 4906
4908 4909
4911 4912
4911 5176
4912 4913
4912 5172
4913 4914
4914 4915
4914 5062
4915 4916
4915 5056
4916 4917
4916 5054
4917 4919
4917 5003
4919 4920
4919 4980
4920 4921
4921 4922
4922 4923
4922 4954
4923 4924
4924 4929
4925 4926
4926 4927
4930 4931
4930 4940
4931 4932
4931 4934
4932 4933
4934 4935
4934 4938
4935 4936
4935 4937
4938 4939
4941 4942
4943 4965
4943 6045
4944 4945
4945 4946
4945 4947
4947 4948
4948 4949
4949 4950
4951 4952
4954 4955
4955 4956
4955 4969
4956 4957
4957 4958
4957 4963
4958 4962
4959 4960
4960 4961
4964 4966
4965 4995
4965 6027
4967 4968
4970 4971
4972 4973
4974 4975
4975 4976
4975 4977
4977 4978
4980 4992
4982 4983
4982 4989
4983 4984
4984 4985
4984 4988
4985 4986
4987 4998
4989 4990
4989 4991
4992 4993
4994 4996
4995 5018
4995 5174
4998 5021
4999 5000
5000 5001
5001 5002
5003 5004
5003 5009
5004 5005
5004 5007
5005 5006
5007 5008
5009 5010
5009 5037
5010 5011
5010 5034
5011 5012
5012 5013
5012 5026
5013 5014
5014 5015
5015 5016
5015 5025
5016 5017
5016 5020
5017 5019
5018 5043
5020 5022
5021 5024
5026 5027
5027 5028
5027 5029
5029 5030
5030 5031
5034 5035
5035 5036
5037 5038
5037 5045
5038 5039
5040 5041
5041 5042
5043 5060
5045 5046
5046 5047
5046 5052
5047 5048
5049 5050
5049 5051
5052 5053
5054 5055
5056 5057
5057 5058
5057 5059
5060 5105
5062 5063
5062 5163
5063 5064
5064 5065
5064 5159
5065 5066
5065 5150
5066 5067
5066 5084
5067 5068
5068 5069
5069 5074
5070 5071
5070 5072
5073 5080
5074 5075
5075 5076
5075 5083
5076 5077
5076 5082
5077 5078
5078 5079
5078 5081
5084 5085
5084 5148
5085 5086
5086 5087
5086 5124
5087 5088
5087 5123
5088 5089
5088 5121
5089 5090
5089 5116
5090 5091
5090 5115
5091 5092
5091 5114
5092 5093
5092 5108
5093 5094
5093 5107
5094 5095
5094 5106
5095 5096
5096 5097
5097 5098
5097 5102
5098 5099
5099 5100
5100 5101
5102 5103
5103 5104
5105 5118
5105 5144
5108 5109
5108 5111
5109 5110
5111 5112
5111 5113
5118 5403
5119 5120
5119 5851
5121 5122
5124 5125
5125 5126
5125 5141
5126 5127
5126 5140
5127 5128
5128 5129
5128 5134
5129 5130
5130 5131
5131 5132
5131 5133
5134 5135
5134 5138
5135 5136
5136 5137
5138 5139
5141 5142
5142 5143
5144 5145
5145 5146
5147 5162
5148 5149
5150 5151
5150 5157
5151 5152
5151 5153
5153 5154
5154 5155
5155 5156
5157 5158
5159 5160
5160 5161
5162 5171
5162 5238
5163 5164
5164 5165
5165 5166
5165 5169
5166 5167
5166 5168
5174 5175
5174 5506
5175 5185
5175 5326
5176 5177
5176 5236
5177 5178
5178 5179
5179 5180
5180 5181
5181 5182
5182 5183
5182 5220
5183 5184
5183 5195
5184 5193
5185 5223
5186 5187
5186 5188
5188 5189
5189 5190
5193 5194
5195 5196
5195 5218
5196 5197
5196 5210
5197 5198
5197 5209
5198 5199
5199 5200
5199 5201
5201 5202
5202 5203
5203 5204
5203 5207
5204 5205
5205 5206
5207 5208
5210 5211
5211 5212
5211 5216
5212 5213
5212 5215
5213 5214
5216 5217
5218 5219
5220 5222
5223 5225
5223 5306
5225 5226
5225 5252
5226 5230
5226 5249
5228 5229
5230 5231
5231 5233
5233 5235
5236 5237
5236 5239
5239 5240
5239 5253
5240 5241
5241 5242
5241 5250
5242 5243
5242 5248
5243 5244
5243 5247
5244 5245
5245 5246
5252 5266
5253 5254
5256 5257
5256 6044
5257 5258
5257 5375
5258 5259
5258 5292
5258 5372
5259 5260
5259 5287
5260 5261
5260 5275
5261 5262
5261 5271
5262 5263
5263 5264
5267 5268
5267 5270
5268 5269
5272 5273
5272 5274
5275 5276
5276 5277
5276 5279
5279 5280
5279 5285
5281 5282
5282 5283
5283 5284
5285 5286
5287 5288
5287 5291
5292 5293
5292 5333
5293 5316
5294 5295
5295 5296
5296 5297
5296 5305
5297 5298
5298 5299
5299 5300
5300 5301
5303 5304
5306 5307
5308 5309
5310 5311
5310 5315
5311 5312
5312 5313
5313 5314
5316 5321
5317 5318
5318 5319
5321 5322
5321 5327
5323 5324
5326 5328
5327 5329
5328 5331
5329 5330
5331 5332
5332 5336
5332 5371
5333 5334
5336 5340
5336 5365
5337 5361
5338 5339
5338 5355
5339 5341
5340 5344
5340 5358
5341 5342
5341 5345
5342 5343
5345 5346
5345 5354
5346 5347
5347 5348
5347 5352
5348 5349
5349 5350
5350 5351
5352 5353
5355 5356
5356 5357
5359 5360
5361 5362
5361 5367
5364 5366
5368 5369
5369 5370
5371 5374
5372 5373
5375 5376
5376 5377
5376 5481
5376 5501
5377 5378
5377 5479
5378 5379
5378 5450
5379 5380
5380 5381
5380 5444
5381 5382
5382 5383
5382 5434
5383 5384
5383 5428
5384 5385
5384 5392
5385 5386
5385 5388
5386 5387
5388 5389
5388 5391
5389 5390
5392 5393
5392 5399
5393 5394
5394 5395
5395 5396
5396 5397
5396 5398
5399 5400
5400 5401
5400 5424
5401 5402
5401 5423
5403 5429
5403 5851
5404 5405
5405 5406
5406 5407
5407 5408
5407 5417
5408 5409
5408 5415
5409 5410
5410 5411
5411 5412
5411 5413
5413 5414
5415 5416
5417 5418
5417 5420
5418 5419
5420 5421
5421 5422
5425 5426
5425 5427
5429 5448
5430 5431
5430 5432
5432 5433
5434 5435
5434 5443
5435 5436
5435 5442
5436 5437
5436 5439
5437 5438
5439 5440
5440 5441
5444 5445
5447 5449
5448 5477
5448 5653
5450 5451
5450 5469
5451 5452
5451 5468
5453 5454
5453 5462
5454 5455
5454 5459
5455 5456
5455 5458
5456 5457
5459 5460
5460 5461
5463 5464
5463 5466
5464 5465
5466 5467
5470 5471
5471 5472
5471 5474
5472 5473
5474 5475
5477 5499
5479 5480
5481 5482
5482 5483
5484 5485
5485 5486
5487 5488
5487 5492
5488 5489
5488 5490
5490 5491
5492 5493
5493 5494
5493 5498
5494 5495
5494 5496
5496 5497
5499 5503
5499 5530
5504 5505
5506 5507
5506 5989
5507 5509
5508 5783
5509 5510
5509 5909
5510 5511
5510 5613
5511 5512
5512 5513
5512 5611
5513 5514
5515 5516
5515 5523
5516 5517
5516 5520
5517 5518
5520 5521
5520 5522
5523 5524
5524 5525
5526 5527
5528 5529
5532 5533
5532 5669
5533 5534
5533 5643
5534 5535
5535 5536
5535 5575
5536 5537
5538 5539
5538 5546
5539 5540
5539 5542
5540 5541
5542 5543
5543 5544
5544 5545
5546 5547
5546 5558
5547 5548
5547 5555
5548 5549
5549 5550
5549 5553
5550 5551
5551 5552
5553 5554
5555 5556
5556 5557
5558 5559
5558 5565
5559 5560
5559 5561
5561 5562
5562 5563
5563 5564
5565 5566
5566 5567
5568 5569
5569 5570
5571 5572
5572 5573
5573 5574
5575 5576
5576 5577
5576 5631
5577 5578
5577 5614
5578 5579
5578 5612
5579 5580
5580 5581
5580 5607
5581 5582
5581 5591
5582 5583
5582 5585
5583 5584
5586 5587
5587 5588
5589 5590
5591 5592
5591 5604
5592 5593
5592 5603
5593 5594
5593 5602
5594 5595
5594 5601
5595 5596
5596 5597
5596 5600
5597 5598
5597 5599
5604 5605
5605 5606
5607 5608
5608 5609
5609 5610
5613 5620
5613 5814
5614 5615
5614 5627
5615 5624
5616 5617
5617 5618
5618 5619
5620 5623
5620 5754
5621 5622
5623 5626
5623 5688
5626 5654
5627 5628
5627 5630
5628 5629
5635 5636
5636 5637
5636 5641
5637 5638
5638 5639
5638 5640
5643 5644
5643 5656
5644 5655
5645 5646
5645 5647
5648 5649
5648 5650
5650 5651
5651 5652
5653 5697
5656 5657
5657 5658
5659 5660
5660 5661
5660 5665
5661 5662
5661 5663
5663 5664
5665 5666
5666 5667
5669 5670
5669 5700
5670 5671
5670 5694
5671 5672
5671 5690
5672 5673
5672 5682
5673 5674
5673 5680
5674 5675
5675 5676
5676 5677
5677 5678
5678 5679
5680 5681
5682 5683
5682 5684
5684 5685
5685 5686
5686 5687
5687 5689
5688 5693
5690 5691
5691 5692
5693 5698
5694 5695
5695 5696
5696 5699
5698 5703
5700 5701
5700 5704
5701 5702
5704 5705
5706 5707
5706 5709
5707 5708
5711 5712
5711 5737
5712 5713
5712 5715
5715 5716
5715 5721
5717 5718
5718 5719
5722 5723
5722 5733
5723 5724
5723 5726
5724 5725
5726 5727
5727 5728
5727 5732
5728 5729
5729 5730
5730 5731
5734 5735
5735 5736
5738 5739
5738 5744
5739 5740
5739 5743
5740 5741
5740 5742
5746 5747
5747 5748
5749 5750
5751 5752
5751 5755
5752 5753
5754 5758
5755 5756
5755 5757
5758 5766
5759 5760
5760 5761
5760 5769
5761 5762
5761 5767
5762 5763
5763 5764
5764 5765
5767 5768
5769 5770
5770 5771
5772 5982
5773 5774
5773 5778
5774 5775
5774 5776
5776 5777
5779 5780
5780 5781
5783 5784
5784 5785
5785 5786
5785 5833
5786 5787
5786 5815
5787 5788
5789 5790
5790 5791
5790 5803
5791 5792
5792 5793
5793 5794
5793 5796
5796 5797
5797 5798
5798 5799
5799 5800
5803 5804
5803 5807
5805 5806
5807 5808
5809 5810
5809 5813
5810 5811
5810 5812
5814 5816
5814 5838
5815 5817
5815 5832
5818 5819
5818 5830
5818 5831
5819 5820
5820 5821
5821 5822
5822 5823
5822 5825
5823 5824
5825 5826
5826 5827
5827 5828
5828 5829
5833 5834
5833 5879
5834 5835
5834 5876
5835 5836
5836 5839
5838 5848
5839 5840
5840 5841
5841 5853
5842 5843
5843 5844
5844 5845
5845 5846
5848 5852
5848 5882
5849 5850
5851 5881
5852 5857
5852 5865
5854 5855
5854 5856
5858 5859
5859 5860
5860 5861
5862 5863
5864 5866
5865 5867
5867 5875
5869 5870
5869 5874
5870 5871
5871 5872
5872 5873
5876 5877
5876 5878
5879 5880
5881 5899
5882 5890
5883 5884
5884 5885
5884 5891
5886 5887
5886 5888
5892 5917
5893 5894
5895 5896
5895 5898
5896 5897
5899 5914
5900 5901
5901 5902
5901 5904
5902 5903
5905 5906
5906 5907
5906 5912
5909 5910
5909 5986
5910 5911
5912 5913
5912 5915
5918 5919
5918 5956
5919 5920
5919 5947
5920 5921
5921 5922
5922 5923
5923 5924
5924 5945
5925 5926
5925 5939
5926 5927
5926 5934
5927 5928
5927 5930
5928 5929
5930 5931
5931 5932
5932 5933
5934 5935
5934 5936
5936 5937
5936 5938
5939 5940
5939 5943
5940 5941
5941 5942
5943 5944
5947 5948
5949 5950
5949 5955
5950 5951
5951 5952
5951 5954
5952 5953
5956 5957
5957 5958
5958 5959
5959 5960
5959 5971
5960 5961
5960 5965
5961 5962
5962 5963
5963 5964
5965 5966
5966 5967
5967 5969
5968 5983
5969 5970
5971 5972
5972 5973
5973 5974
5974 5975
5975 5976
5977 5978
5978 5979
5979 5980
5982 5990
5984 5985
5985 5987
5985 6004
5986 5988
5989 5994
5990 6023
5991 5992
5992 5993
5994 5995
5995 5996
5995 6025
5996 5997
5997 5998
5997 6008
5998 5999
6000 6001
6000 6003
6001 6002
6008 6009
6009 6010
6011 6012
6012 6013
6012 6019
6013 6014
6013 6018
6014 6015
6015 6016
6017 6021
6019 6020
6021 6024
6023 6044
6024 6031
6025 6026
6028 6029
6028 6036
6029 6030
6029 6033
6030 6032
6033 6034
6033 6035
6036 6037
6037 6038
6037 6040
6038 6039
6040 6041
6042 6043
6045 6046
6045 6048
6046 6047
6048 6049
6050 6051
6051 6052
6052 6053
