# Strigiformes clade from the Open Tree of Life; 648 nodes, 647 edges; canonical sorted order
0 2
1 2
2 580
3 6
4 6
5 580
6 7
6 553
6 580
8 514
9 517
10 11
11 517
12 514
13 514
14 514
15 514
16 17
17 18
17 516
19 514
20 516
21 558
22 26
23 26
24 26
25 26
26 27
26 560
28 555
29 555
30 555
31 555
32 555
33 555
34 35
34 36
34 557
37 555
38 560
39 555
40 555
41 42
42 503
43 501
44 503
45 508
46 49
47 49
48 49
49 50
49 51
49 52
49 53
49 501
54 496
55 57
56 57
57 500
58 496
59 503
60 506
61 496
62 507
63 506
64 496
65 498
66 497
67 511
68 496
69 509
70 496
71 498
72 506
73 496
74 511
75 76
76 77
76 78
76 79
76 80
76 81
76 498
82 504
83 496
84 635
85 635
86 635
87 567
88 559
89 562
90 552
91 569
92 575
93 94
94 581
95 552
96 578
97 552
98 562
99 562
100 552
101 562
102 579
103 552
104 552
105 565
106 572
107 568
108 552
109 552
110 552
111 569
112 552
113 570
114 562
115 571
116 552
117 562
118 562
119 562
120 577
121 576
122 573
123 579
124 562
125 552
126 562
127 563
128 577
129 575
130 131
131 556
132 133
132 495
134 138
135 510
136 138
137 138
138 139
138 509
138 510
140 510
141 142
142 637
143 144
144 551
145 147
146 519
147 519
148 519
149 172
150 172
151 491
152 156
153 156
154 156
155 156
156 489
157 644
158 487
159 639
160 492
161 493
162 484
163 488
164 639
165 485
166 483
167 484
168 172
169 172
170 172
171 172
172 173
172 489
174 492
175 483
176 638
177 494
178 485
179 639
180 493
181 638
182 644
183 184
183 582
185 186
186 526
187 189
188 189
189 350
190 191
190 517
192 584
193 589
194 590
195 589
196 589
197 594
198 584
199 200
200 593
201 550
202 550
203 584
204 584
205 584
206 550
207 584
208 558
209 600
210 550
211 584
212 584
213 595
214 550
215 584
216 584
217 595
218 220
219 220
220 221
220 591
222 584
223 584
224 584
225 550
226 227
227 228
227 585
229 584
230 584
231 584
232 584
233 596
234 597
235 584
236 600
237 550
238 599
239 584
240 241
241 242
241 596
243 597
244 587
245 593
246 591
247 512
248 519
249 519
250 531
251 530
252 519
253 519
254 519
255 512
256 519
257 547
258 539
259 519
260 522
261 519
262 526
263 494
264 519
265 512
266 512
267 546
268 519
269 538
270 519
271 519
272 531
273 275
274 275
275 276
275 528
277 541
278 512
279 519
280 519
281 519
282 539
283 286
284 286
285 286
286 527
287 519
288 519
289 542
290 542
291 540
292 519
293 540
294 545
295 646
296 512
297 643
298 532
299 537
300 519
301 486
302 304
303 304
304 305
304 306
304 547
307 527
308 309
308 310
308 546
311 519
312 519
313 538
314 315
315 523
316 519
317 318
318 523
319 519
320 519
321 519
322 644
323 512
324 634
325 634
326 601
327 328
328 329
328 330
328 350
331 332
332 478
333 515
334 516
335 336
335 337
335 513
338 340
339 340
340 341
340 637
342 343
342 532
344 345
345 584
346 347
347 348
347 349
347 505
350 351
350 353
350 415
350 512
350 550
351 478
352 353
354 635
355 635
356 359
357 359
358 359
359 360
359 361
359 362
359 641
363 635
364 635
365 524
366 635
367 635
368 635
369 635
370 502
371 635
372 635
373 635
374 635
375 635
376 635
377 529
378 635
379 635
380 635
381 382
382 518
383 635
384 635
385 388
386 388
387 388
388 567
389 635
390 635
391 635
392 635
393 635
394 635
395 635
396 559
397 635
398 635
399 635
400 404
401 404
402 404
403 404
404 502
405 406
405 407
405 548
408 409
409 410
409 529
411 412
411 561
413 415
414 415
415 416
415 417
415 418
419 612
420 608
421 605
422 609
423 612
424 611
425 605
426 609
427 613
428 605
429 605
430 605
431 605
432 605
433 606
434 605
435 632
436 632
437 467
438 633
439 628
440 467
441 467
442 613
443 624
444 622
445 624
446 448
446 620
446 622
447 623
449 620
450 467
451 615
452 617
453 618
454 616
455 617
456 615
457 458
458 459
458 633
460 631
461 602
462 618
463 467
464 631
465 630
466 467
467 601
467 602
467 625
468 469
468 605
470 471
471 472
471 629
473 474
473 619
475 476
476 477
476 626
478 601
478 634
479 480
480 583
481 482
482 582
483 647
484 647
485 645
486 487
486 640
487 488
488 489
490 491
490 493
490 639
491 492
494 638
495 496
495 574
496 497
496 504
497 498
497 499
499 500
499 503
500 501
502 641
504 505
505 506
506 507
506 511
507 508
508 509
512 519
512 544
513 514
513 544
514 515
514 517
515 516
518 524
518 636
519 520
520 521
520 533
521 522
521 525
522 523
524 529
525 526
525 528
525 532
526 527
528 530
530 531
533 534
533 543
534 535
534 541
535 536
535 540
536 537
536 539
537 538
541 542
543 545
543 547
544 574
545 546
548 549
548 635
549 559
549 567
550 551
550 583
551 552
552 553
552 581
553 554
554 555
554 561
555 556
555 560
556 557
557 558
561 562
562 563
562 578
563 564
564 565
564 576
565 566
566 568
566 570
568 569
570 571
571 572
572 573
573 575
574 598
576 577
578 579
581 582
583 584
584 585
584 599
585 586
586 587
586 597
587 588
588 589
588 596
589 590
589 592
590 591
592 593
592 594
594 595
598 621
598 638
599 600
602 603
603 604
603 619
604 605
604 614
604 618
605 606
606 607
607 608
607 610
608 609
610 611
610 613
611 612
614 615
614 616
616 617
619 620
621 635
621 637
622 623
623 624
625 626
625 633
626 627
627 628
627 632
628 629
629 630
630 631
635 636
636 641
638 639
639 640
640 642
642 643
642 645
643 644
645 646
646 647
