# Syngnathidae clade from the Open Tree of Life; 487 nodes, 486 edges; canonical sorted order
0 3
1 3
2 3
3 4
3 339
5 6
6 339
7 8
8 9
8 339
10 11
11 339
12 14
13 14
14 15
14 339
16 18
17 18
18 19
18 20
18 452
21 24
22 24
23 24
24 339
25 27
26 27
27 28
27 29
27 339
30 35
31 35
32 35
33 35
34 35
35 36
35 37
35 38
35 462
39 40
39 339
41 53
42 445
43 53
44 53
45 53
46 447
47 446
48 53
49 447
50 53
51 53
52 53
53 54
53 55
53 56
53 444
53 445
57 452
58 424
59 394
60 394
61 394
62 394
63 394
64 423
65 394
66 394
67 394
68 394
69 394
70 394
71 394
72 339
73 78
74 78
75 78
76 78
77 78
78 466
79 88
80 88
81 88
82 88
83 88
84 88
85 88
86 88
87 88
88 89
88 460
90 97
91 97
92 97
93 97
94 461
95 97
96 97
97 460
97 461
98 461
99 101
100 101
101 424
102 103
103 468
104 108
105 108
106 108
107 108
108 109
108 110
108 111
108 112
108 427
113 114
113 339
115 454
116 454
117 423
118 400
119 454
120 398
121 454
122 454
123 454
124 454
125 454
126 454
127 454
128 129
128 397
130 131
131 339
132 136
133 136
134 136
135 136
136 137
136 138
136 139
136 386
136 435
140 186
140 469
141 186
142 186
143 186
144 482
145 186
146 442
147 475
148 473
149 484
150 478
151 455
152 482
153 481
154 453
155 186
156 186
157 186
158 474
159 480
160 186
161 186
162 484
163 418
164 434
165 455
166 186
167 426
168 186
169 186
170 186
171 418
172 471
173 437
174 186
175 186
176 481
177 467
178 467
179 451
180 186
181 186
182 479
183 186
184 186
185 186
186 187
186 190
186 191
186 193
186 195
186 196
186 197
186 202
186 203
186 205
186 483
186 485
188 406
189 483
192 465
194 442
198 480
199 465
200 475
201 478
204 472
206 399
207 209
208 209
209 339
210 211
211 212
211 428
213 215
214 215
215 339
216 219
217 219
218 219
219 396
220 221
221 429
222 223
223 339
224 225
224 339
226 227
227 339
228 231
229 231
230 231
231 232
231 339
233 237
234 237
235 237
236 237
237 238
237 339
239 240
239 241
239 458
242 249
243 249
244 249
245 249
246 249
247 249
248 249
249 250
249 339
251 266
252 266
253 266
254 266
255 266
256 266
257 266
258 266
259 266
260 266
261 266
262 266
263 266
264 266
265 266
266 267
266 268
266 269
266 464
270 273
271 273
272 273
273 274
273 339
275 277
276 277
277 278
277 279
277 339
280 282
281 282
282 283
282 284
282 285
282 339
286 339
287 415
288 339
289 468
290 291
290 339
292 293
293 297
294 297
295 297
296 297
297 466
298 299
299 300
299 450
301 303
302 303
303 304
303 339
305 306
306 443
307 308
307 309
307 443
310 456
311 313
312 456
313 314
313 394
313 456
315 316
316 430
317 322
318 322
319 322
320 322
321 322
322 323
322 324
322 435
325 441
326 329
327 441
328 329
329 330
329 331
329 440
329 441
332 335
332 444
332 448
333 449
334 449
336 448
337 338
338 339
339 389
339 394
339 457
340 341
341 439
342 409
343 415
344 394
345 403
346 405
347 394
348 394
349 394
350 394
351 394
352 394
353 404
354 394
355 420
356 394
357 419
358 394
359 394
360 405
361 421
362 394
363 394
364 394
365 394
366 421
367 394
368 411
369 394
370 412
371 394
372 419
373 416
374 411
375 394
376 413
377 410
378 394
379 394
380 414
381 383
382 383
383 384
383 385
383 398
387 389
388 389
390 394
391 431
392 431
393 394
394 433
394 438
394 450
395 399
395 426
395 486
396 397
396 469
397 398
399 406
400 401
400 454
401 402
401 422
402 403
402 407
403 404
404 405
406 418
407 408
407 416
408 409
408 412
409 410
410 411
412 413
413 414
414 415
416 417
417 419
417 420
420 421
422 423
422 424
425 427
425 433
425 435
426 432
427 428
428 429
429 430
430 431
432 434
432 463
433 454
434 436
436 437
436 451
437 442
438 439
438 444
439 440
440 443
445 446
446 447
448 449
450 452
451 453
453 455
454 469
457 458
457 468
458 459
459 460
459 462
462 464
463 465
463 467
464 466
470 471
470 476
470 486
471 472
472 473
473 474
474 475
476 477
476 481
477 478
477 479
479 480
482 485
483 484
485 486
