# Testudines clade from the Open Tree of Life; 1465 nodes, 1464 edges; canonical sorted order
0 1444
1 3
1 1437
1 1439
2 1439
4 1444
5 6
5 988
6 7
8 9
9 10
9 11
9 1227
12 13
13 14
13 15
13 308
16 17
17 18
17 308
19 23
20 23
21 23
22 23
23 24
23 1410
25 28
26 28
27 28
28 29
28 147
30 1299
31 1292
32 1292
33 1292
34 1292
35 1292
36 1320
37 1292
38 1292
39 1292
40 1292
41 1292
42 1292
43 1292
44 1292
45 1292
46 47
47 932
48 49
49 50
49 51
49 989
52 53
53 1166
54 61
55 61
56 1312
57 61
58 61
59 61
60 61
61 62
61 71
61 1311
61 1312
63 68
64 68
65 68
66 68
67 68
68 69
68 70
68 1312
72 78
73 78
74 78
75 78
76 78
77 78
78 79
78 80
78 81
78 82
78 83
78 1127
84 85
85 1316
86 87
86 88
86 1409
89 90
90 1127
91 92
92 1127
93 1318
94 1318
95 98
96 1315
97 98
98 99
98 101
98 103
98 1309
98 1315
98 1317
100 1317
102 1316
104 105
105 106
105 107
105 849
108 109
109 110
109 308
111 112
111 246
111 988
112 113
114 115
115 1389
116 1388
117 1387
118 1386
119 1389
120 1385
120 1386
120 1388
121 1387
122 233
122 723
122 1381
122 1382
122 1393
123 125
124 125
125 849
126 127
126 932
128 129
129 849
130 131
131 132
131 1166
133 134
134 135
134 989
136 137
136 1166
138 139
138 842
140 143
141 143
142 143
143 144
143 145
143 146
143 1234
147 149
147 1126
148 149
150 151
150 1436
152 153
152 849
154 155
154 1074
156 158
157 158
158 989
159 614
159 848
159 1313
159 1423
160 1353
161 1377
162 170
163 1361
164 1390
165 170
166 1368
167 1368
168 1390
169 1353
170 175
170 1333
170 1340
171 1340
172 1377
173 1380
174 1363
176 177
176 179
176 1235
178 179
180 181
181 182
181 394
181 732
181 734
181 1180
181 1233
181 1235
182 311
182 1334
183 207
183 208
183 209
183 210
183 1413
184 1417
185 1420
186 1427
187 1421
188 189
189 190
189 1426
191 1418
192 1427
193 1422
194 1417
195 1413
196 1420
197 203
198 1413
199 201
200 201
201 202
201 206
201 1415
203 1412
203 1413
203 1426
204 1415
205 1422
211 1424
212 1424
213 214
214 1425
215 1264
216 217
217 219
217 220
217 221
217 222
217 1264
218 1264
222 223
222 538
222 618
222 866
222 1154
223 327
223 1237
224 225
225 1448
226 1449
227 229
227 1448
227 1449
228 229
229 230
231 1449
232 233
234 1323
235 1323
236 237
236 238
236 1322
236 1323
239 240
240 243
240 1216
241 243
242 243
243 244
245 246
247 248
248 1263
249 251
250 251
251 252
251 1230
253 254
254 1127
255 256
256 849
257 327
257 988
257 1126
258 262
259 262
260 262
261 262
262 272
263 1351
264 1345
265 267
266 267
267 268
267 1352
269 1344
270 1343
271 1341
272 275
272 276
272 1339
272 1341
273 1350
274 1345
277 1351
278 1352
279 1349
280 281
281 282
281 1331
283 292
284 1373
285 1372
286 292
287 1372
288 1370
289 1367
290 1367
291 1369
292 294
292 1366
292 1367
292 1369
293 1373
295 1369
296 297
296 298
296 1331
299 1441
300 1441
301 302
302 304
302 1406
302 1440
303 1442
305 1442
306 307
306 1185
308 310
308 450
308 521
308 605
308 720
308 1122
308 1124
308 1237
309 310
311 313
311 1156
312 313
314 315
315 316
315 1127
317 320
318 320
319 320
320 1410
321 322
321 397
323 324
323 1296
325 326
325 1127
327 1334
328 1302
329 1290
330 1290
331 335
332 1308
333 1308
334 1289
335 336
335 337
335 1288
335 1289
335 1302
338 339
339 1332
340 342
340 514
340 615
340 748
340 893
340 894
340 934
340 936
340 1184
340 1185
340 1225
341 342
343 1346
344 1346
345 349
346 349
347 349
348 349
349 1438
350 351
350 1324
352 1324
353 1438
354 371
355 371
356 371
357 371
358 371
359 371
360 368
361 368
362 368
363 368
364 368
365 368
366 368
367 368
368 369
368 370
368 1228
371 372
371 373
371 374
371 376
371 1227
371 1228
375 1228
377 378
378 379
379 1233
380 382
381 382
382 383
382 989
384 386
385 386
386 1074
387 389
388 389
389 1283
390 394
391 394
392 394
393 394
395 396
396 1319
397 399
397 988
398 399
400 401
401 1127
402 405
402 746
402 988
403 405
404 405
405 406
407 408
408 989
409 421
410 421
411 421
412 421
413 421
414 421
415 421
416 421
417 421
418 421
419 421
420 421
421 422
421 423
421 424
421 425
421 426
421 427
421 1436
428 429
429 1382
430 432
431 432
432 433
432 434
432 1395
435 436
436 490
436 549
436 742
436 916
436 1335
436 1336
437 438
438 989
439 440
440 1325
441 443
442 443
443 444
443 1225
445 447
446 447
447 448
447 1314
449 450
451 1463
452 1461
453 464
454 464
455 464
456 464
457 464
458 1463
459 1464
460 464
461 464
462 1462
463 464
464 465
464 467
464 468
464 1459
464 1461
464 1464
466 1464
469 1205
470 1201
471 1206
472 1203
473 480
474 1207
475 480
476 478
477 478
478 1200
479 1202
480 1188
480 1197
481 482
481 483
481 1200
484 1207
485 486
486 487
486 1199
488 1205
489 1203
490 491
492 495
493 495
494 495
495 496
495 497
495 498
495 499
495 989
500 501
501 849
502 504
502 1385
503 504
504 505
506 507
507 1127
508 1374
509 1375
510 1375
511 512
511 1365
511 1374
513 514
515 518
516 518
517 518
518 519
518 1445
520 521
522 528
523 528
524 528
525 528
526 528
527 528
528 529
528 530
528 531
528 532
528 1127
533 1327
534 536
534 1326
534 1327
535 1327
537 538
539 540
540 541
540 1423
542 543
543 1074
544 1458
545 546
546 1451
546 1458
547 1458
548 549
550 551
551 989
552 553
552 849
554 555
555 1305
556 557
557 1432
558 1429
559 563
560 1435
561 1431
562 1433
563 1412
563 1429
564 1433
565 566
566 1435
567 1177
567 1237
567 1241
567 1263
568 1248
569 1250
570 584
571 1257
572 1262
573 1252
574 1248
575 1257
576 1260
577 578
577 1259
579 1247
580 1252
581 1255
582 1256
583 1255
584 1241
584 1245
584 1258
585 588
586 588
587 588
588 589
588 1253
590 1254
591 1260
592 593
593 594
593 1262
595 597
596 597
597 1234
598 599
598 1376
600 601
601 932
602 605
603 605
604 605
606 1330
607 612
607 1329
607 1330
608 609
609 610
609 611
609 1330
613 614
615 616
617 618
618 619
618 620
621 622
621 625
621 1189
623 625
624 625
625 626
625 627
628 629
628 1450
630 632
631 1394
632 1393
632 1394
633 1394
634 639
635 636
636 637
636 639
638 639
639 1459
640 1362
641 1360
642 655
643 655
644 655
645 655
646 655
647 655
648 1357
649 1354
650 655
651 1359
652 653
653 1362
654 1358
655 656
655 657
655 658
655 661
655 663
655 664
655 1339
655 1354
655 1362
659 1359
660 1360
662 1357
665 666
665 669
665 1378
667 669
668 669
669 670
669 671
672 673
672 896
674 1229
675 1224
676 1211
677 1456
678 1224
679 1211
680 1196
681 1196
682 1229
683 684
684 989
685 686
686 849
687 688
688 939
689 690
690 691
690 1383
692 1274
693 1270
694 1274
695 1332
696 697
697 1235
698 707
699 707
700 707
701 707
702 707
703 707
704 707
705 707
706 707
707 708
707 709
707 849
710 711
710 1299
710 1300
710 1303
712 1300
713 1301
714 1303
715 1301
716 1303
717 718
717 1366
719 720
720 721
722 723
723 724
723 725
723 726
727 728
727 1127
729 730
730 1393
731 732
733 734
734 735
736 737
737 790
738 742
739 742
740 742
741 742
743 745
744 745
745 989
746 747
748 749
748 750
751 752
751 1295
753 754
753 755
753 756
753 1127
757 761
757 1384
757 1391
758 759
758 760
758 1392
762 1391
763 765
764 765
765 766
765 1392
767 768
767 946
769 771
770 771
771 772
771 1322
773 774
773 1294
773 1306
775 1306
776 1307
777 778
778 1307
779 1282
780 1275
781 1280
782 1281
783 1281
784 1278
785 1273
785 1275
785 1276
786 1279
787 1282
788 1275
789 1278
790 810
790 814
790 969
790 1236
790 1238
790 1273
791 792
792 793
792 989
794 795
795 849
796 798
796 988
797 798
799 1249
800 1269
801 1249
802 1267
803 1261
804 806
805 806
806 1266
807 1261
808 1272
809 1238
811 1271
812 1272
813 1267
815 1273
816 817
816 818
816 1268
819 1269
820 1266
821 822
822 1298
823 1460
824 1457
825 826
825 828
825 1456
825 1457
827 1460
829 830
829 1166
831 833
831 988
832 833
833 834
835 836
836 837
836 1127
838 1151
838 1326
839 840
840 841
840 1437
842 847
842 1184
843 844
844 845
844 846
844 847
848 988
848 1236
849 864
849 925
849 1157
849 1236
849 1283
850 859
851 859
852 859
853 1287
854 859
855 859
856 859
857 1287
858 859
859 861
859 1283
859 1284
860 1285
862 1286
863 1284
864 865
866 867
868 869
868 1166
870 1447
871 1447
872 873
872 1446
872 1447
873 874
873 875
873 876
877 878
877 1333
879 1220
880 888
881 888
882 1218
883 1223
884 1219
885 1223
886 888
887 888
888 1216
888 1217
889 1217
890 1221
891 1221
892 893
894 895
896 988
897 900
898 900
899 900
900 901
901 902
901 1408
903 904
904 905
904 1311
906 907
907 1288
908 909
908 1191
910 1402
911 1397
912 1399
913 1400
914 1400
915 916
916 917
916 1396
918 920
919 920
920 921
920 1402
922 923
922 1399
924 1401
925 926
925 927
928 929
929 930
929 931
929 1376
932 988
933 934
935 936
937 938
938 1166
939 941
939 988
940 941
941 942
943 945
944 945
945 1395
946 988
947 948
948 1074
949 950
950 951
950 952
950 1263
953 1242
954 1244
955 956
956 957
956 1244
958 1242
959 1241
959 1242
959 1244
960 962
960 1446
961 962
962 963
964 965
965 989
966 967
967 1127
968 969
970 973
971 973
972 973
973 974
973 1232
975 1232
976 986
977 986
978 986
979 980
979 986
981 982
982 1231
983 985
984 985
985 1231
986 987
986 1230
986 1231
986 1232
988 1073
988 1074
988 1166
989 1081
989 1335
989 1403
989 1459
990 1184
990 1334
990 1335
991 1048
992 1048
993 1048
994 1048
995 1048
996 1048
997 1048
998 1048
999 1048
1000 1048
1001 1048
1002 1048
1003 1048
1004 1048
1005 1048
1006 1048
1007 1048
1008 1048
1009 1017
1010 1017
1011 1017
1012 1017
1013 1017
1014 1017
1015 1017
1016 1017
1017 1018
1017 1019
1017 1020
1017 1021
1017 1453
1022 1048
1023 1025
1024 1025
1025 1452
1026 1048
1027 1048
1028 1029
1029 1030
1029 1048
1031 1048
1032 1048
1033 1048
1034 1048
1035 1048
1036 1048
1037 1454
1038 1048
1039 1048
1040 1041
1040 1454
1042 1048
1043 1048
1044 1048
1045 1048
1046 1048
1047 1048
1048 1049
1048 1050
1048 1051
1048 1052
1048 1053
1048 1054
1048 1055
1048 1056
1048 1057
1048 1058
1048 1059
1048 1060
1048 1061
1048 1062
1048 1063
1048 1064
1048 1065
1048 1066
1048 1067
1048 1068
1048 1069
1048 1070
1048 1071
1048 1072
1048 1451
1048 1452
1073 1080
1074 1078
1075 1078
1076 1078
1077 1078
1079 1080
1081 1082
1083 1212
1084 1215
1085 1087
1086 1087
1087 1213
1088 1185
1089 1212
1090 1091
1091 1185
1092 1094
1093 1094
1094 1210
1095 1190
1096 1185
1097 1192
1098 1185
1099 1194
1100 1185
1101 1102
1102 1103
1102 1104
1102 1210
1105 1106
1105 1107
1105 1214
1108 1109
1108 1195
1110 1215
1111 1114
1112 1114
1113 1114
1114 1115
1114 1116
1114 1117
1114 1195
1118 1193
1119 1122
1120 1122
1121 1122
1122 1123
1124 1125
1126 1127
1127 1163
1127 1182
1127 1291
1127 1329
1128 1292
1129 1292
1130 1292
1131 1292
1132 1292
1133 1292
1134 1292
1135 1292
1136 1292
1137 1292
1138 1292
1139 1292
1140 1292
1141 1292
1142 1305
1143 1304
1144 1292
1145 1292
1146 1292
1147 1292
1148 1292
1149 1292
1150 1292
1152 1321
1153 1154
1155 1156
1157 1158
1159 1160
1160 1314
1161 1162
1161 1166
1164 1165
1164 1378
1166 1171
1167 1171
1168 1171
1169 1171
1170 1171
1171 1172
1171 1173
1171 1174
1171 1175
1171 1176
1177 1178
1179 1180
1181 1182
1183 1191
1183 1211
1183 1455
1185 1186
1186 1187
1186 1216
1187 1188
1187 1208
1188 1189
1189 1190
1190 1192
1191 1196
1192 1193
1193 1194
1194 1195
1197 1198
1197 1204
1198 1199
1198 1201
1199 1200
1201 1202
1202 1203
1204 1205
1204 1206
1206 1207
1208 1209
1208 1213
1209 1210
1209 1212
1213 1214
1214 1215
1217 1218
1218 1219
1218 1223
1219 1220
1220 1221
1222 1224
1222 1229
1222 1428
1225 1226
1226 1227
1226 1230
1233 1234
1238 1239
1238 1271
1239 1240
1239 1268
1240 1243
1240 1265
1243 1249
1243 1261
1245 1246
1245 1256
1246 1247
1246 1250
1247 1248
1250 1251
1251 1252
1251 1253
1253 1254
1254 1255
1256 1257
1258 1259
1258 1262
1259 1260
1265 1266
1265 1267
1268 1269
1270 1274
1270 1404
1271 1272
1276 1277
1276 1282
1277 1278
1277 1279
1279 1280
1280 1281
1284 1285
1285 1286
1286 1287
1288 1379
1289 1290
1291 1292
1291 1325
1292 1293
1292 1319
1293 1294
1293 1309
1294 1295
1295 1296
1296 1297
1297 1298
1297 1304
1298 1299
1300 1301
1302 1308
1304 1305
1306 1307
1309 1310
1310 1311
1310 1314
1313 1328
1313 1333
1315 1316
1317 1318
1319 1320
1320 1321
1321 1322
1324 1346
1325 1326
1328 1332
1328 1346
1329 1331
1336 1337
1336 1381
1337 1338
1337 1378
1338 1339
1338 1364
1340 1347
1341 1342
1342 1343
1342 1348
1343 1344
1344 1345
1346 1379
1347 1353
1347 1361
1348 1349
1348 1352
1349 1350
1350 1351
1354 1355
1355 1356
1355 1360
1356 1357
1356 1358
1358 1359
1361 1363
1363 1368
1363 1377
1364 1365
1364 1376
1365 1366
1369 1370
1370 1371
1371 1372
1371 1373
1374 1375
1377 1380
1379 1404
1380 1390
1381 1395
1382 1383
1383 1384
1384 1385
1386 1387
1388 1389
1391 1392
1396 1397
1396 1401
1397 1398
1398 1399
1398 1400
1401 1402
1403 1405
1403 1450
1404 1438
1405 1406
1405 1443
1406 1407
1407 1408
1407 1411
1408 1409
1409 1410
1411 1412
1411 1436
1413 1414
1413 1424
1414 1415
1414 1416
1416 1417
1416 1418
1418 1419
1419 1420
1419 1421
1421 1422
1423 1425
1425 1428
1426 1427
1428 1434
1429 1430
1430 1431
1430 1435
1431 1432
1432 1433
1434 1437
1434 1455
1439 1444
1440 1441
1440 1442
1443 1445
1443 1448
1445 1446
1450 1451
1452 1453
1453 1454
1455 1456
1457 1460
1461 1462
1462 1463
