0 4
0 5
0 8
0 10
0 11
0 12
0 14
0 15
0 16
0 19
0 23
0 25
0 26
0 29
0 31
0 34
0 35
0 36
0 37
0 39
0 42
0 50
0 60
0 67
0 71
0 77
0 79
0 82
0 84
0 87
0 90
0 93
0 94
0 96
0 107
0 108
0 112
0 121
0 122
0 126
0 143
0 149
0 153
0 155
0 158
0 166
0 171
0 177
0 182
0 189
0 195
1 4
1 5
1 6
1 7
1 8
1 9
1 10
1 11
1 14
1 15
1 17
1 21
1 30
1 32
1 52
1 56
1 59
1 65
1 79
1 80
1 83
1 88
1 93
1 99
1 101
1 103
1 124
1 127
1 132
1 136
1 140
1 144
1 147
1 151
1 166
1 171
1 180
1 182
1 185
2 4
2 5
2 7
2 9
2 58
2 70
2 106
2 114
2 130
2 134
2 142
2 159
3 4
3 6
3 22
3 31
3 39
3 43
3 64
3 67
3 72
3 73
3 76
3 78
3 116
3 117
3 147
3 166
3 176
3 186
4 5
4 6
4 7
4 8
4 12
4 13
4 18
4 27
4 34
4 35
4 42
4 46
4 49
4 51
4 52
4 53
4 56
4 57
4 59
4 63
4 70
4 71
4 88
4 93
4 94
4 95
4 96
4 98
4 114
4 127
4 128
4 173
4 175
5 7
5 8
5 9
5 10
5 11
5 12
5 13
5 15
5 16
5 17
5 18
5 19
5 22
5 23
5 24
5 28
5 33
5 39
5 54
5 59
5 62
5 65
5 66
5 70
5 85
5 92
5 101
5 106
5 121
5 131
5 136
5 139
5 157
5 164
5 188
6 21
6 33
6 35
6 41
6 64
6 73
6 74
6 127
6 132
6 165
6 186
7 9
7 12
7 25
7 34
7 58
7 86
7 92
7 102
7 167
8 15
8 21
8 28
8 30
8 40
8 42
8 44
8 58
8 60
8 69
8 72
8 90
8 94
8 100
8 103
8 112
8 124
8 133
8 155
8 163
8 168
8 170
8 179
8 187
8 191
9 10
9 13
9 17
9 25
9 26
9 30
9 31
9 32
9 36
9 43
9 45
9 53
9 68
9 97
9 101
9 106
9 109
9 111
9 119
9 122
9 130
9 134
9 140
9 150
9 151
9 167
9 173
9 175
9 176
9 178
9 180
9 181
9 196
10 11
10 14
10 18
10 20
10 21
10 39
10 41
10 45
10 50
10 52
10 56
10 63
10 64
10 68
10 73
10 85
10 89
10 91
10 94
10 97
10 117
10 118
10 132
10 138
10 143
10 151
10 156
10 170
10 172
10 191
11 13
11 14
11 23
11 28
11 29
11 32
11 34
11 37
11 41
11 45
11 52
11 60
11 61
11 67
11 75
11 78
11 84
11 85
11 99
11 101
11 105
11 107
11 118
11 121
11 150
11 152
11 155
11 159
11 183
12 16
12 44
12 48
12 49
12 60
12 72
12 79
12 86
12 87
12 111
13 31
13 32
13 35
13 38
13 49
13 58
13 125
13 134
13 158
13 175
13 181
13 184
14 16
14 19
14 20
14 23
14 25
14 27
14 29
14 38
14 41
14 48
14 62
14 76
14 100
14 142
14 157
14 192
15 18
15 24
15 44
15 66
15 108
15 133
15 154
16 17
16 19
16 20
16 27
16 42
16 44
16 46
16 48
16 50
16 55
16 62
16 75
16 76
16 86
16 89
16 104
16 105
16 110
16 141
16 145
16 159
16 163
16 165
16 173
17 22
17 28
17 55
17 61
17 81
17 105
17 178
17 188
17 193
17 196
18 24
18 33
18 50
18 113
18 115
18 196
19 20
19 33
19 46
19 57
19 69
19 74
19 76
19 77
19 81
19 110
19 128
19 144
19 162
19 164
19 185
19 198
20 24
20 38
20 48
20 119
20 162
20 168
20 198
21 40
21 45
21 53
21 131
21 155
21 161
21 182
22 55
22 73
22 102
22 156
23 26
23 118
24 38
24 40
24 57
24 59
24 69
24 112
24 128
24 154
24 184
24 196
25 26
25 27
25 30
25 36
25 37
25 43
25 82
25 123
25 176
26 36
26 47
27 29
27 47
27 125
27 131
28 43
28 66
30 90
30 120
30 129
30 194
31 82
31 116
32 47
32 53
32 61
32 68
32 125
32 142
32 162
32 169
32 174
32 180
33 120
33 164
33 190
34 37
34 63
34 93
34 98
34 107
34 177
35 49
35 51
35 57
35 65
35 71
35 77
35 82
35 83
35 87
35 96
35 98
35 108
35 113
35 116
35 136
35 143
35 145
35 146
35 148
35 165
35 199
36 47
36 54
36 86
36 134
36 167
36 199
38 40
38 54
39 64
39 166
39 176
40 51
40 77
40 88
41 78
41 172
42 87
42 103
42 110
42 126
42 140
42 145
42 160
42 165
42 169
42 171
42 193
43 62
43 123
43 144
43 172
43 197
44 46
44 72
44 141
45 129
45 150
45 187
46 54
46 110
46 133
46 198
48 51
48 111
48 168
48 185
49 71
49 83
49 113
49 146
49 158
49 183
50 79
50 91
50 163
50 191
51 55
51 143
51 150
51 152
52 96
52 97
52 103
52 120
52 135
52 137
52 161
53 56
53 61
53 80
53 95
53 109
53 119
53 142
53 197
55 141
56 70
56 80
56 85
56 88
56 95
56 109
56 138
56 139
57 69
57 128
57 148
57 197
58 102
58 106
58 124
58 170
59 63
59 80
60 84
60 90
60 99
60 179
61 105
61 109
61 148
61 174
61 197
62 66
62 123
62 172
64 65
64 67
64 74
64 92
64 117
64 123
64 180
65 74
65 75
65 83
65 91
65 104
65 139
65 146
67 68
67 92
67 159
68 97
68 119
68 138
70 95
71 89
71 183
71 195
73 78
73 102
73 147
73 156
73 186
74 75
74 81
74 122
74 153
75 81
75 84
75 104
75 115
75 192
77 138
79 149
81 100
81 122
81 192
83 117
84 89
84 99
84 146
84 152
84 190
85 181
86 199
87 126
87 132
87 139
87 149
87 169
87 199
88 127
90 104
90 120
90 124
90 129
90 135
90 149
90 161
91 141
91 158
91 184
91 191
93 100
93 108
93 140
93 189
94 112
94 135
94 179
96 98
96 107
96 113
96 129
96 130
96 137
96 178
97 111
97 114
97 115
97 130
97 169
97 182
97 184
97 194
100 177
101 147
101 185
103 160
103 187
104 137
104 154
105 193
106 114
107 193
109 116
110 126
110 171
110 198
112 133
112 163
113 125
113 178
114 115
118 121
120 135
120 137
120 164
122 153
123 136
124 179
125 131
125 181
126 157
129 161
132 144
132 151
134 167
134 195
135 170
135 194
136 157
137 154
137 189
138 148
140 160
141 145
143 189
144 160
144 186
145 162
145 192
146 183
147 156
150 152
152 153
152 175
155 168
155 177
160 187
162 174
163 173
169 174
177 188
178 190
179 195
181 194
184 188
186 190
